HEA2\(0\0\1)                            
   1.00000000000000     
    12.5642004013000008    0.0000000000000000    0.0000000000000000
     0.2421838980000000   11.9822529565000000    0.0000000000000000
     0.0000000000000000    0.0000000000000000   38.5521011352999992
   Al   Cr   Ti   V 
    32    28    24    28
Selective dynamics
Direct
  0.3635599910815372  0.1327999979450283  0.1000000163796528   F   F   F
  0.3635599911311189  0.6327999829854036  0.1000000163796528   F   F   F
  0.3630599975212476  0.8825500011050451  0.1001000329776147   F   F   F
  0.3630599975208497  0.3825500011259066  0.1001000329776147   F   F   F
  0.8746200204048122  0.6248499751408190  0.1011999770987231   F   F   F
  0.8746200203728520  0.1248499974446347  0.1011999770987231   F   F   F
  0.6387900114169938  0.1256799996183560  0.1013799831371927   F   F   F
  0.6387900114002321  0.6256800293915603  0.1013799831371927   F   F   F
  0.0167500004279333  0.2490999996274397  0.1402400135864355   F   F   F
  0.0167500004095658  0.7491000294840902  0.1402400135864355   F   F   F
  0.3629299998672835  0.6314700245829385  0.1788499951481626   F   F   F
  0.3629299998044573  0.1314699948097342  0.1788499951481626   F   F   F
  0.6475999951435440  0.6221200227588426  0.1789000034212123   F   F   F
  0.6475999951763143  0.1221200004132967  0.1789000034212123   F   F   F
  0.8875100016396686  0.3803800046240511  0.1795499920926957   F   F   F
  0.8875100016572333  0.8803799748091237  0.1795499920926957   F   F   F
  0.3639954332144446  0.1312376529596673  0.2547725824362428   T   T   T
  0.3639954332624205  0.6312376380835030  0.2547725824362428   T   T   T
  0.3614004497866587  0.3794027334970404  0.2547416909817590   T   T   T
  0.3614004497854508  0.8794027335596322  0.2547416909817590   T   T   T
  0.8706978553793057  0.1230031746174509  0.2563147017351816   T   T   T
  0.8706978553465354  0.6230031969629968  0.2563147017351816   T   T   T
  0.6345842831689812  0.6241296754790288  0.2567110457761749   T   T   T
  0.6345842831221564  0.1241296531334829  0.2567110457761749   T   T   T
  0.0127239383740584  0.7477156376658357  0.2936624722542115   T   T   T
  0.0127239384228372  0.2477156227479341  0.2936624722542115   T   T   T
  0.3625038122585740  0.1292743794700429  0.3320971237631975   T   T   T
  0.3625038122097952  0.6292743943879374  0.3320971237631975   T   T   T
  0.6385756793755712  0.6217175210416656  0.3328840062041301   T   T   T
  0.6385756793447621  0.1217175061237640  0.3328840062041301   T   T   T
  0.8927038763269644  0.3774125920419701  0.3340126008948453   T   T   T
  0.8927038763085968  0.8774126218986277  0.3340126008948453   T   T   T
  0.6346499919912318  0.3826900124414863  0.1008499786134891   F   F   F
  0.6346499919916297  0.8826900124206176  0.1008499786134891   F   F   F
  0.1380400061836013  0.8806200027079214  0.1024600192901843   F   F   F
  0.1380400061831963  0.3806200027287829  0.1024600192901843   F   F   F
  0.7590600252291395  0.9907400012416048  0.1381400227528360   F   F   F
  0.7590600252303474  0.4907400011790060  0.1381400227528360   F   F   F
  0.2433999925756112  0.0082799997095861  0.1395900249408868   F   F   F
  0.2433999925721864  0.5082799792418129  0.1395900249408868   F   F   F
  0.1442299932197102  0.1233699992285722  0.1793900132116946   F   F   F
  0.1442299932040996  0.6233699917800593  0.1793900132116946   F   F   F
  0.6300799846535625  0.8781700134524257  0.1794199943532107   F   F   F
  0.6300799846547704  0.3781700133898340  0.1794199943532107   F   F   F
  0.2396100014537836  0.7622699737819545  0.2158499956149100   F   F   F
  0.2396100014362190  0.2622700035968819  0.2158499956149100   F   F   F
  0.2438900023932007  0.5062100291172413  0.2159100174796507   F   F   F
  0.2438900024019190  0.0062099997613245  0.2159100174796507   F   F   F
  0.6354137302466003  0.8803163844400511  0.2554789940718035   T   T   T
  0.6354137302462024  0.3803163844609127  0.2554789940718035   T   T   T
  0.1371995978749410  0.8763302536612544  0.2555698026699497   T   T   T
  0.1371995978761489  0.3763302535986627  0.2555698026699497   T   T   T
  0.7536721773267067  0.9902056359921497  0.2947084931411463   T   T   T
  0.7536721773263088  0.4902056360130112  0.2947084931411463   T   T   T
  0.2449221756297053  0.5035166859934471  0.2938337080203306   T   T   T
  0.2449221756243194  0.0035167027891213  0.2938337080203306   T   T   T
  0.1410845738488308  0.1040728854480653  0.3262777711154868   T   T   T
  0.1410845738172117  0.6040728705718938  0.3262777711154868   T   T   T
  0.6527087860306351  0.3918330415523802  0.3284097348652370   T   T   T
  0.6527087860310330  0.8918330415315187  0.3284097348652370   T   T   T
  0.7500600218449875  0.2694900035680092  0.1399000286928995   F   F   F
  0.7500600218453854  0.7694900035471477  0.1399000286928995   F   F   F
  0.5060300231016228  0.0000199999950681  0.1404899954737004   F   F   F
  0.5060300231347270  0.5000200271811082  0.1404899954737004   F   F   F
  0.5054200291820976  0.2601299881846657  0.1413599848649980   F   F   F
  0.5054200291824955  0.7601299881637971  0.1413599848649980   F   F   F
  0.8745899796091408  0.6205099821371007  0.1795700192501641   F   F   F
  0.8745899796407599  0.1205099970132650  0.1795700192501641   F   F   F
  0.5058599710709757  0.4967199861835070  0.2164999842604587   F   F   F
  0.5058599710526082  0.9967200160401646  0.2164999842604587   F   F   F
  0.5055800080640367  0.7577999830219184  0.2169499993436617   F   F   F
  0.5055800080464721  0.2578000128368458  0.2169499993436617   F   F   F
  0.0193300004927650  0.7462900281327407  0.2200000286167025   F   F   F
  0.0193300005111325  0.2462899982760831  0.2200000286167025   F   F   F
  0.0185199994464114  0.5008100271113634  0.2200999856070212   F   F   F
  0.0185199994912892  0.0008100000087836  0.2200999856070212   F   F   F
  0.7522552017841606  0.7635684091920862  0.2952615100434580   T   T   T
  0.7522552017853685  0.2635684091294874  0.2952615100434580   T   T   T
  0.5028222312177307  0.9944044243359617  0.2961250919816450   T   T   T
  0.5028222312344924  0.4944043945627644  0.2961250919816450   T   T   T
  0.5045081629077287  0.7640363863647566  0.2964045389862571   T   T   T
  0.5045081628901641  0.2640364161796840  0.2964045389862571   T   T   T
  0.8754365351250786  0.1138329978866962  0.3332420354523771   T   T   T
  0.8754365351426432  0.6138329680717688  0.3332420354523771   T   T   T
  0.1468300074027482  0.1234500035485908  0.1019200012007175   F   F   F
  0.1468300074347155  0.6234499812447680  0.1019200012007175   F   F   F
  0.8789299726851354  0.8864399790723922  0.1021600291039348   F   F   F
  0.8789299726675708  0.3864400088873197  0.1021600291039348   F   F   F
  0.0215799994728911  0.5031499863078324  0.1393700241951308   F   F   F
  0.0215799994474324  0.0031500000156086  0.1393700241951308   F   F   F
  0.2411800027183801  0.2620599865817894  0.1406500339623520   F   F   F
  0.2411800027187780  0.7620599865609279  0.1406500339623520   F   F   F
  0.3667599857108215  0.3804399966808560  0.1793900132116946   F   F   F
  0.3667599857096207  0.8804399967434478  0.1793900132116946   F   F   F
  0.1340100019752413  0.8798099756591498  0.1800000071499639   F   F   F
  0.1340100020388775  0.3798100053906168  0.1800000071499639   F   F   F
  0.7479799985746212  0.7691900133856109  0.2193300127877507   F   F   F
  0.7479799985742162  0.2691900134064724  0.2193300127877507   F   F   F
  0.7497900128127384  0.4864799976399965  0.2195799946750228   F   F   F
  0.7497900128131363  0.9864799976191350  0.2195799946750228   F   F   F
  0.1472003649315431  0.1256486383153203  0.2550276387291451   T   T   T
  0.1472003649491077  0.6256486085003929  0.2550276387291451   T   T   T
  0.8771288398890265  0.3813130214831178  0.2551175769500668   T   T   T
  0.8771288398270032  0.8813129916681904  0.2551175769500668   T   T   T
  0.0144967730374644  0.0057926789632538  0.2932631315018548   T   T   T
  0.0144967730903430  0.5057926555744962  0.2932631315018548   T   T   T
  0.2376088345084784  0.7600758652187486  0.2952858217134257   T   T   T
  0.2376088344909137  0.2600758950336760  0.2952858217134257   T   T   T
  0.3520233255498875  0.3809314649903827  0.3267976979045975   T   T   T
  0.3520233255502925  0.8809314649695140  0.3267976979045975   T   T   T
  0.1272456488869111  0.3976168172822628  0.3294566094601745   T   T   T
  0.1272456488685436  0.8976168471389203  0.3294566094601745   T   T   T
 
  0.00000000E+00  0.00000000E+00  0.00000000E+00
  0.00000000E+00  0.00000000E+00  0.00000000E+00
  0.00000000E+00  0.00000000E+00  0.00000000E+00
  0.00000000E+00  0.00000000E+00  0.00000000E+00
  0.00000000E+00  0.00000000E+00  0.00000000E+00
  0.00000000E+00  0.00000000E+00  0.00000000E+00
  0.00000000E+00  0.00000000E+00  0.00000000E+00
  0.00000000E+00  0.00000000E+00  0.00000000E+00
  0.00000000E+00  0.00000000E+00  0.00000000E+00
  0.00000000E+00  0.00000000E+00  0.00000000E+00
  0.00000000E+00  0.00000000E+00  0.00000000E+00
  0.00000000E+00  0.00000000E+00  0.00000000E+00
  0.00000000E+00  0.00000000E+00  0.00000000E+00
  0.00000000E+00  0.00000000E+00  0.00000000E+00
  0.00000000E+00  0.00000000E+00  0.00000000E+00
  0.00000000E+00  0.00000000E+00  0.00000000E+00
  0.00000000E+00  0.00000000E+00  0.00000000E+00
  0.00000000E+00  0.00000000E+00  0.00000000E+00
  0.00000000E+00  0.00000000E+00  0.00000000E+00
  0.00000000E+00  0.00000000E+00  0.00000000E+00
  0.00000000E+00  0.00000000E+00  0.00000000E+00
  0.00000000E+00  0.00000000E+00  0.00000000E+00
  0.00000000E+00  0.00000000E+00  0.00000000E+00
  0.00000000E+00  0.00000000E+00  0.00000000E+00
  0.00000000E+00  0.00000000E+00  0.00000000E+00
  0.00000000E+00  0.00000000E+00  0.00000000E+00
  0.00000000E+00  0.00000000E+00  0.00000000E+00
  0.00000000E+00  0.00000000E+00  0.00000000E+00
  0.00000000E+00  0.00000000E+00  0.00000000E+00
  0.00000000E+00  0.00000000E+00  0.00000000E+00
  0.00000000E+00  0.00000000E+00  0.00000000E+00
  0.00000000E+00  0.00000000E+00  0.00000000E+00
  0.00000000E+00  0.00000000E+00  0.00000000E+00
  0.00000000E+00  0.00000000E+00  0.00000000E+00
  0.00000000E+00  0.00000000E+00  0.00000000E+00
  0.00000000E+00  0.00000000E+00  0.00000000E+00
  0.00000000E+00  0.00000000E+00  0.00000000E+00
  0.00000000E+00  0.00000000E+00  0.00000000E+00
  0.00000000E+00  0.00000000E+00  0.00000000E+00
  0.00000000E+00  0.00000000E+00  0.00000000E+00
  0.00000000E+00  0.00000000E+00  0.00000000E+00
  0.00000000E+00  0.00000000E+00  0.00000000E+00
  0.00000000E+00  0.00000000E+00  0.00000000E+00
  0.00000000E+00  0.00000000E+00  0.00000000E+00
  0.00000000E+00  0.00000000E+00  0.00000000E+00
  0.00000000E+00  0.00000000E+00  0.00000000E+00
  0.00000000E+00  0.00000000E+00  0.00000000E+00
  0.00000000E+00  0.00000000E+00  0.00000000E+00
  0.00000000E+00  0.00000000E+00  0.00000000E+00
  0.00000000E+00  0.00000000E+00  0.00000000E+00
  0.00000000E+00  0.00000000E+00  0.00000000E+00
  0.00000000E+00  0.00000000E+00  0.00000000E+00
  0.00000000E+00  0.00000000E+00  0.00000000E+00
  0.00000000E+00  0.00000000E+00  0.00000000E+00
  0.00000000E+00  0.00000000E+00  0.00000000E+00
  0.00000000E+00  0.00000000E+00  0.00000000E+00
  0.00000000E+00  0.00000000E+00  0.00000000E+00
  0.00000000E+00  0.00000000E+00  0.00000000E+00
  0.00000000E+00  0.00000000E+00  0.00000000E+00
  0.00000000E+00  0.00000000E+00  0.00000000E+00
  0.00000000E+00  0.00000000E+00  0.00000000E+00
  0.00000000E+00  0.00000000E+00  0.00000000E+00
  0.00000000E+00  0.00000000E+00  0.00000000E+00
  0.00000000E+00  0.00000000E+00  0.00000000E+00
  0.00000000E+00  0.00000000E+00  0.00000000E+00
  0.00000000E+00  0.00000000E+00  0.00000000E+00
  0.00000000E+00  0.00000000E+00  0.00000000E+00
  0.00000000E+00  0.00000000E+00  0.00000000E+00
  0.00000000E+00  0.00000000E+00  0.00000000E+00
  0.00000000E+00  0.00000000E+00  0.00000000E+00
  0.00000000E+00  0.00000000E+00  0.00000000E+00
  0.00000000E+00  0.00000000E+00  0.00000000E+00
  0.00000000E+00  0.00000000E+00  0.00000000E+00
  0.00000000E+00  0.00000000E+00  0.00000000E+00
  0.00000000E+00  0.00000000E+00  0.00000000E+00
  0.00000000E+00  0.00000000E+00  0.00000000E+00
  0.00000000E+00  0.00000000E+00  0.00000000E+00
  0.00000000E+00  0.00000000E+00  0.00000000E+00
  0.00000000E+00  0.00000000E+00  0.00000000E+00
  0.00000000E+00  0.00000000E+00  0.00000000E+00
  0.00000000E+00  0.00000000E+00  0.00000000E+00
  0.00000000E+00  0.00000000E+00  0.00000000E+00
  0.00000000E+00  0.00000000E+00  0.00000000E+00
  0.00000000E+00  0.00000000E+00  0.00000000E+00
  0.00000000E+00  0.00000000E+00  0.00000000E+00
  0.00000000E+00  0.00000000E+00  0.00000000E+00
  0.00000000E+00  0.00000000E+00  0.00000000E+00
  0.00000000E+00  0.00000000E+00  0.00000000E+00
  0.00000000E+00  0.00000000E+00  0.00000000E+00
  0.00000000E+00  0.00000000E+00  0.00000000E+00
  0.00000000E+00  0.00000000E+00  0.00000000E+00
  0.00000000E+00  0.00000000E+00  0.00000000E+00
  0.00000000E+00  0.00000000E+00  0.00000000E+00
  0.00000000E+00  0.00000000E+00  0.00000000E+00
  0.00000000E+00  0.00000000E+00  0.00000000E+00
  0.00000000E+00  0.00000000E+00  0.00000000E+00
  0.00000000E+00  0.00000000E+00  0.00000000E+00
  0.00000000E+00  0.00000000E+00  0.00000000E+00
  0.00000000E+00  0.00000000E+00  0.00000000E+00
  0.00000000E+00  0.00000000E+00  0.00000000E+00
  0.00000000E+00  0.00000000E+00  0.00000000E+00
  0.00000000E+00  0.00000000E+00  0.00000000E+00
  0.00000000E+00  0.00000000E+00  0.00000000E+00
  0.00000000E+00  0.00000000E+00  0.00000000E+00
  0.00000000E+00  0.00000000E+00  0.00000000E+00
  0.00000000E+00  0.00000000E+00  0.00000000E+00
  0.00000000E+00  0.00000000E+00  0.00000000E+00
  0.00000000E+00  0.00000000E+00  0.00000000E+00
  0.00000000E+00  0.00000000E+00  0.00000000E+00
  0.00000000E+00  0.00000000E+00  0.00000000E+00
  0.00000000E+00  0.00000000E+00  0.00000000E+00
  0.00000000E+00  0.00000000E+00  0.00000000E+00
