HEA1\(0\0\1)                            
   1.00000000000000     
    12.5016002655000005    0.0000000000000000    0.0000000000000000
     0.0816354937000000   12.0767237501999993    0.0000000000000000
     0.0000000000000000    0.0000000000000000   33.5218009948999978
   Al   Cr   Ti   V 
    26    24    24    22
Selective dynamics
Direct
  0.3717800378647524  0.1203899979889798  0.0000000000000000   F   F   F
  0.3717800378768104  0.6203899979806948  0.0000000000000000   F   F   F
  0.3713200092373015  0.3736400008259935  0.0006399999810043   F   F   F
  0.3713200092493523  0.8736400008177085  0.0006399999810043   F   F   F
  0.8849499821787319  0.6201500296697589  0.0017000000092082   F   F   F
  0.8849499822013556  0.1201499998686302  0.0017000000092082   F   F   F
  0.0219800025297090  0.2459899931842671  0.0483100004455750   F   F   F
  0.0219800006393456  0.7459899782712824  0.0483100004455750   F   F   F
  0.0253100003999549  0.9998300075217017  0.0485999993928701   F   F   F
  0.0253100003879041  0.4998300075299866  0.0485999993928701   F   F   F
  0.3682900071271575  0.6214900016965004  0.0890699997429820   F   F   F
  0.3682900071151067  0.1214900017047853  0.0890699997429820   F   F   F
  0.6534000038957473  0.6167700290301568  0.0917299985901039   F   F   F
  0.6534000635107375  0.1167699992290281  0.0917299985901039   F   F   F
  0.8866099714935558  0.3759900331350039  0.0949599966446968   F   F   F
  0.8866100311673293  0.8759899735079060  0.0949599966446968   F   F   F
  0.3687684828559064  0.1226536584404650  0.1785116909409400   T   T   T
  0.3687684828679572  0.6226536584321800  0.1785116909409400   T   T   T
  0.3706056538461219  0.3737485274024179  0.1779077243972205   T   T   T
  0.3706056538128614  0.8737484975847266  0.1779077243972205   T   T   T
  0.8801749824055500  0.1234460017814924  0.1795558997054175   T   T   T
  0.8801749824522753  0.6234459719638010  0.1795558997054175   T   T   T
  0.0126316222509924  0.7523278872821605  0.2262287003669913   T   T   T
  0.0126316222109676  0.2523278425763250  0.2262287003669913   T   T   T
  0.0172562007112512  0.4956371888125689  0.2264297105392099   T   T   T
  0.0172561988378414 -0.0043628201219732  0.2264297105392099   T   T   T
  0.6503000259764988  0.3742299974299854  0.0012199999637943   F   F   F
  0.6503000259538751  0.8742300272311141  0.0012199999637943   F   F   F
  0.1416900008782420  0.8733500242419083  0.0022100000537364   F   F   F
  0.1416900009008657  0.3733499944407797  0.0022100000537364   F   F   F
  0.2440299987539447  0.4958699942027565  0.0445999987359684   F   F   F
  0.2440299987659955  0.9958699941944786  0.0445999987359684   F   F   F
  0.7584599852973142  0.9887599348956115  0.0449000000993109   F   F   F
  0.7584599852959002  0.4887599945227095  0.0449000000993109   F   F   F
  0.6417099237530763  0.8769000172604464  0.0913399979453899   F   F   F
  0.6417099833227553  0.3768999576499041  0.0913399979453899   F   F   F
  0.2484299987915577  0.2522099912196438  0.1333599984583174   F   F   F
  0.2484299987689340  0.7522100210207725  0.1333599984583174   F   F   F
  0.2485699802626939  0.4958600103691921  0.1337099969265338   F   F   F
  0.2485699802294334  0.9958599805515007  0.1337099969265338   F   F   F
  0.7520200014310774  0.9901000261599933  0.1391800046098339   F   F   F
  0.7520200610460677  0.4900999963588646  0.1391800046098339   F   F   F
  0.6399513702275459  0.8742020712892683  0.1794017863386544   T   T   T
  0.6399513702501696  0.3742020414881397  0.1794017863386544   T   T   T
  0.1459874302211585  0.8743144362400465  0.1804664908622722   T   T   T
  0.1459874301637893  0.3743144064389177  0.1804664908622722   T   T   T
  0.2352262364220519  0.4937393566763496  0.2161363535014618   T   T   T
  0.2352262364341027  0.9937393566680646  0.2161363535014618   T   T   T
  0.7398393937326521  0.9893765327078299  0.2156984775431819   T   T   T
  0.7398393937552757  0.4893765029067012  0.2156984775431819   T   T   T
  0.8915300369434576  0.8793799877076864  0.0015000000151417   F   F   F
  0.8915299773390331  0.3793799877159643  0.0015000000151417   F   F   F
  0.5210300087671627  0.2497600019169113  0.0451700016723535   F   F   F
  0.5210300088032511  0.7497599124804069  0.0451700016723535   F   F   F
  0.5226600170223392  0.9926900267799397  0.0452699996408583   F   F   F
  0.5226600170449629  0.4926899969788110  0.0452699996408583   F   F   F
  0.7582899927951914  0.7575400471380718  0.0454999990672320   F   F   F
  0.7582899927725038  0.2575399875275366  0.0454999990672320   F   F   F
  0.3688499927373456  0.8751800059867207  0.0893099978564820   F   F   F
  0.3688499927252948  0.3751800059949986  0.0893099978564820   F   F   F
  0.8825799226738482  0.1189600005528177  0.0958200022572981   F   F   F
  0.8825799822922562  0.6189600229015895  0.0958200022572981   F   F   F
  0.5178599954008689  0.7513899803205888  0.1348299980268877   F   F   F
  0.5178599953541365  0.2513900101382802  0.1348299980268877   F   F   F
  0.5172399878445972  0.4927099942897541  0.1351500004635540   F   F   F
  0.5172399878566480  0.9927099942814763  0.1351500004635540   F   F   F
  0.8844950888672665  0.8768827275479792  0.1796008678832367   T   T   T
  0.8844950889010741  0.3768827572828640  0.1796008678832367   T   T   T
  0.5192570229703198  0.7490009903666055  0.2205800086285071   T   T   T
  0.5192570229347643  0.2490010797203103  0.2205800086285071   T   T   T
  0.5259636531834070  0.4971093691760695  0.2201952939619637   T   T   T
  0.5259636531607833  0.9971093989771982  0.2201952939619637   T   T   T
  0.7562102701560700  0.7616803883135295  0.2263236234490795   T   T   T
  0.7562102701333753  0.2616803287029943  0.2263236234490795   T   T   T
  0.6539899707042949  0.1162499934617429  0.0001899999943618   F   F   F
  0.6539899706536971  0.6162499785487583  0.0001899999943618   F   F   F
  0.1466500013870018  0.6212400198253931  0.0014600000461655   F   F   F
  0.1466500014096255  0.1212399900242573  0.0014600000461655   F   F   F
  0.2437299937258359  0.7500500082938473  0.0439700000075831   F   F   F
  0.2437299937137851  0.2500500083021251  0.0439700000075831   F   F   F
  0.1462800055462878  0.1213999986524286  0.0946300029787395   F   F   F
  0.1462800055583386  0.6213999986441436  0.0946300029787395   F   F   F
  0.1417199969327285  0.3723199963835810  0.0956000015180436   F   F   F
  0.1417199969341425  0.8723199367564831  0.0956000015180436   F   F   F
  0.7483199834812737  0.7583900093639500  0.1392699927044561   F   F   F
  0.7483199834692229  0.2583900093722278  0.1392699927044561   F   F   F
  0.0245299990870933  0.9997599720536812  0.1394499987250413   F   F   F
  0.0245299991203538  0.4997600018713726  0.1394499987250413   F   F   F
  0.0245399996771383  0.7477800250130286  0.1397099941829651   F   F   F
  0.0245399996997619  0.2477799952119000  0.1397099941829651   F   F   F
  0.6445194431162778  0.1231769869159053  0.1790909521248281   T   T   T
  0.6445194431137981  0.6231769646333776  0.1790909521248281   T   T   T
  0.1420311594953609  0.6220980975260936  0.1814309003097867   T   T   T
  0.1420311594693266  0.1220980751773148  0.1814309003097867   T   T   T
  0.2354397826471157  0.2524061901115513  0.2203795937222838   T   T   T
  0.2354397826591736  0.7524061901032735  0.2203795937222838   T   T   T
 
  0.00000000E+00  0.00000000E+00  0.00000000E+00
  0.00000000E+00  0.00000000E+00  0.00000000E+00
  0.00000000E+00  0.00000000E+00  0.00000000E+00
  0.00000000E+00  0.00000000E+00  0.00000000E+00
  0.00000000E+00  0.00000000E+00  0.00000000E+00
  0.00000000E+00  0.00000000E+00  0.00000000E+00
  0.00000000E+00  0.00000000E+00  0.00000000E+00
  0.00000000E+00  0.00000000E+00  0.00000000E+00
  0.00000000E+00  0.00000000E+00  0.00000000E+00
  0.00000000E+00  0.00000000E+00  0.00000000E+00
  0.00000000E+00  0.00000000E+00  0.00000000E+00
  0.00000000E+00  0.00000000E+00  0.00000000E+00
  0.00000000E+00  0.00000000E+00  0.00000000E+00
  0.00000000E+00  0.00000000E+00  0.00000000E+00
  0.00000000E+00  0.00000000E+00  0.00000000E+00
  0.00000000E+00  0.00000000E+00  0.00000000E+00
  0.00000000E+00  0.00000000E+00  0.00000000E+00
  0.00000000E+00  0.00000000E+00  0.00000000E+00
  0.00000000E+00  0.00000000E+00  0.00000000E+00
  0.00000000E+00  0.00000000E+00  0.00000000E+00
  0.00000000E+00  0.00000000E+00  0.00000000E+00
  0.00000000E+00  0.00000000E+00  0.00000000E+00
  0.00000000E+00  0.00000000E+00  0.00000000E+00
  0.00000000E+00  0.00000000E+00  0.00000000E+00
  0.00000000E+00  0.00000000E+00  0.00000000E+00
  0.00000000E+00  0.00000000E+00  0.00000000E+00
  0.00000000E+00  0.00000000E+00  0.00000000E+00
  0.00000000E+00  0.00000000E+00  0.00000000E+00
  0.00000000E+00  0.00000000E+00  0.00000000E+00
  0.00000000E+00  0.00000000E+00  0.00000000E+00
  0.00000000E+00  0.00000000E+00  0.00000000E+00
  0.00000000E+00  0.00000000E+00  0.00000000E+00
  0.00000000E+00  0.00000000E+00  0.00000000E+00
  0.00000000E+00  0.00000000E+00  0.00000000E+00
  0.00000000E+00  0.00000000E+00  0.00000000E+00
  0.00000000E+00  0.00000000E+00  0.00000000E+00
  0.00000000E+00  0.00000000E+00  0.00000000E+00
  0.00000000E+00  0.00000000E+00  0.00000000E+00
  0.00000000E+00  0.00000000E+00  0.00000000E+00
  0.00000000E+00  0.00000000E+00  0.00000000E+00
  0.00000000E+00  0.00000000E+00  0.00000000E+00
  0.00000000E+00  0.00000000E+00  0.00000000E+00
  0.00000000E+00  0.00000000E+00  0.00000000E+00
  0.00000000E+00  0.00000000E+00  0.00000000E+00
  0.00000000E+00  0.00000000E+00  0.00000000E+00
  0.00000000E+00  0.00000000E+00  0.00000000E+00
  0.00000000E+00  0.00000000E+00  0.00000000E+00
  0.00000000E+00  0.00000000E+00  0.00000000E+00
  0.00000000E+00  0.00000000E+00  0.00000000E+00
  0.00000000E+00  0.00000000E+00  0.00000000E+00
  0.00000000E+00  0.00000000E+00  0.00000000E+00
  0.00000000E+00  0.00000000E+00  0.00000000E+00
  0.00000000E+00  0.00000000E+00  0.00000000E+00
  0.00000000E+00  0.00000000E+00  0.00000000E+00
  0.00000000E+00  0.00000000E+00  0.00000000E+00
  0.00000000E+00  0.00000000E+00  0.00000000E+00
  0.00000000E+00  0.00000000E+00  0.00000000E+00
  0.00000000E+00  0.00000000E+00  0.00000000E+00
  0.00000000E+00  0.00000000E+00  0.00000000E+00
  0.00000000E+00  0.00000000E+00  0.00000000E+00
  0.00000000E+00  0.00000000E+00  0.00000000E+00
  0.00000000E+00  0.00000000E+00  0.00000000E+00
  0.00000000E+00  0.00000000E+00  0.00000000E+00
  0.00000000E+00  0.00000000E+00  0.00000000E+00
  0.00000000E+00  0.00000000E+00  0.00000000E+00
  0.00000000E+00  0.00000000E+00  0.00000000E+00
  0.00000000E+00  0.00000000E+00  0.00000000E+00
  0.00000000E+00  0.00000000E+00  0.00000000E+00
  0.00000000E+00  0.00000000E+00  0.00000000E+00
  0.00000000E+00  0.00000000E+00  0.00000000E+00
  0.00000000E+00  0.00000000E+00  0.00000000E+00
  0.00000000E+00  0.00000000E+00  0.00000000E+00
  0.00000000E+00  0.00000000E+00  0.00000000E+00
  0.00000000E+00  0.00000000E+00  0.00000000E+00
  0.00000000E+00  0.00000000E+00  0.00000000E+00
  0.00000000E+00  0.00000000E+00  0.00000000E+00
  0.00000000E+00  0.00000000E+00  0.00000000E+00
  0.00000000E+00  0.00000000E+00  0.00000000E+00
  0.00000000E+00  0.00000000E+00  0.00000000E+00
  0.00000000E+00  0.00000000E+00  0.00000000E+00
  0.00000000E+00  0.00000000E+00  0.00000000E+00
  0.00000000E+00  0.00000000E+00  0.00000000E+00
  0.00000000E+00  0.00000000E+00  0.00000000E+00
  0.00000000E+00  0.00000000E+00  0.00000000E+00
  0.00000000E+00  0.00000000E+00  0.00000000E+00
  0.00000000E+00  0.00000000E+00  0.00000000E+00
  0.00000000E+00  0.00000000E+00  0.00000000E+00
  0.00000000E+00  0.00000000E+00  0.00000000E+00
  0.00000000E+00  0.00000000E+00  0.00000000E+00
  0.00000000E+00  0.00000000E+00  0.00000000E+00
  0.00000000E+00  0.00000000E+00  0.00000000E+00
  0.00000000E+00  0.00000000E+00  0.00000000E+00
  0.00000000E+00  0.00000000E+00  0.00000000E+00
  0.00000000E+00  0.00000000E+00  0.00000000E+00
  0.00000000E+00  0.00000000E+00  0.00000000E+00
  0.00000000E+00  0.00000000E+00  0.00000000E+00
