HEA2\(0\0\1)                            
   1.00000000000000     
    12.5642004013000008    0.0000000000000000    0.0000000000000000
     0.2421838980000000   11.9822529565000000    0.0000000000000000
     0.0000000000000000    0.0000000000000000   38.5521011352999992
   Al   Cr   Ti   V 
    32    32    32    32
Selective dynamics
Direct
  0.3635599910815372  0.1327999979450283  0.1000000163796528   F   F   F
  0.3635599911311189  0.6327999829854036  0.1000000163796528   F   F   F
  0.3630599975212476  0.8825500011050451  0.1001000329776147   F   F   F
  0.3630599975208497  0.3825500011259066  0.1001000329776147   F   F   F
  0.8746200204048122  0.6248499751408190  0.1011999770987231   F   F   F
  0.8746200203728520  0.1248499974446347  0.1011999770987231   F   F   F
  0.6387900114169938  0.1256799996183560  0.1013799831371927   F   F   F
  0.6387900114002321  0.6256800293915603  0.1013799831371927   F   F   F
  0.0167500004279333  0.2490999996274397  0.1402400135864355   F   F   F
  0.0167500004095658  0.7491000294840902  0.1402400135864355   F   F   F
  0.3629299998672835  0.6314700245829385  0.1788499951481626   F   F   F
  0.3629299998044573  0.1314699948097342  0.1788499951481626   F   F   F
  0.6475999951435440  0.6221200227588426  0.1789000034212123   F   F   F
  0.6475999951763143  0.1221200004132967  0.1789000034212123   F   F   F
  0.8875100016396686  0.3803800046240511  0.1795499920926957   F   F   F
  0.8875100016572333  0.8803799748091237  0.1795499920926957   F   F   F
  0.3611033647460809  0.1305424185445525  0.2537407757868749   T   T   T
  0.3611033647940567  0.6305424036683882  0.2537407757868749   T   T   T
  0.3620961089453694  0.3809998989637966  0.2544121444537500   T   T   T
  0.3620961089441614  0.8809998990263886  0.2544121444537500   T   T   T
  0.8674592489398192  0.1266451195824181  0.2565172412913177   T   T   T
  0.8674592489070490  0.6266451419279639  0.2565172412913177   T   T   T
  0.6405015010730774  0.6256832774072173  0.2574831234432193   T   T   T
  0.6405015010262526  0.1256832550616712  0.2574831234432193   T   T   T
  0.0159350091560629  0.7456867669154670  0.2924488242263460   T   T   T
  0.0159350092048417  0.2456867519975654  0.2924488242263460   T   T   T
  0.3517022072500083  0.1260291982093813  0.3327531660209079   T   T   T
  0.3517022072012296  0.6260292131272758  0.3327531660209079   T   T   T
  0.6500807956804704  0.6163803977493828  0.3367289482920199   T   T   T
  0.6500807956496613  0.1163803828314885  0.3367289482920199   T   T   T
  0.9071970597227836  0.3807683780696712  0.3303888049224453   T   T   T
  0.9071970597044161  0.8807684079263290  0.3303888049224453   T   T   T
  0.6346499919912318  0.3826900124414863  0.1008499786134891   F   F   F
  0.6346499919916297  0.8826900124206176  0.1008499786134891   F   F   F
  0.1380400061836013  0.8806200027079214  0.1024600192901843   F   F   F
  0.1380400061831963  0.3806200027287829  0.1024600192901843   F   F   F
  0.7590600252291395  0.9907400012416048  0.1381400227528360   F   F   F
  0.7590600252303474  0.4907400011790060  0.1381400227528360   F   F   F
  0.2433999925756112  0.0082799997095861  0.1395900249408868   F   F   F
  0.2433999925721864  0.5082799792418129  0.1395900249408868   F   F   F
  0.1442299932197102  0.1233699992285722  0.1793900132116946   F   F   F
  0.1442299932040996  0.6233699917800593  0.1793900132116946   F   F   F
  0.6300799846535625  0.8781700134524257  0.1794199943532107   F   F   F
  0.6300799846547704  0.3781700133898340  0.1794199943532107   F   F   F
  0.2396100014537836  0.7622699737819545  0.2158499956149100   F   F   F
  0.2396100014362190  0.2622700035968819  0.2158499956149100   F   F   F
  0.2438900023932007  0.5062100291172413  0.2159100174796507   F   F   F
  0.2438900024019190  0.0062099997613245  0.2159100174796507   F   F   F
  0.6336846049492210  0.8819533957300523  0.2562988050653920   T   T   T
  0.6336846049488231  0.3819533957509140  0.2562988050653920   T   T   T
  0.1384599935689606  0.8798968796669698  0.2556577981415639   T   T   T
  0.1384599935701686  0.3798968796043785  0.2556577981415639   T   T   T
  0.7593923174630006  0.9879668821724631  0.2936733304445213   T   T   T
  0.7593923174626027  0.4879668821933247  0.2936733304445213   T   T   T
  0.2400144520895347  0.5072752790626344  0.2918825649565703   T   T   T
  0.2400144520841488  0.0072752958583086  0.2918825649565703   T   T   T
  0.1377156755184789  0.1239854126374535  0.3316224918537429   T   T   T
  0.1377156754868598  0.6239853977612821  0.3316224918537429   T   T   T
  0.6027843542994168  0.3730146603990437  0.3334784940879713   T   T   T
  0.6027843542998147  0.8730146603781819  0.3334784940879713   T   T   T
  0.2341303834804953  0.2777468785736570  0.3636084187770292   T   T   T
  0.2341303834637336  0.7777469083468544  0.3636084187770292   T   T   T
  0.2338849466398750  0.4809087657230446  0.3643774530505705   T   T   T
  0.2338849466975426 -0.0190912537849702  0.3643774530505705   T   T   T
  0.7500600218449875  0.2694900035680092  0.1399000286928995   F   F   F
  0.7500600218453854  0.7694900035471477  0.1399000286928995   F   F   F
  0.5060300231016228  0.0000199999950681  0.1404899954737004   F   F   F
  0.5060300231347270  0.5000200271811082  0.1404899954737004   F   F   F
  0.5054200291820976  0.2601299881846657  0.1413599848649980   F   F   F
  0.5054200291824955  0.7601299881637971  0.1413599848649980   F   F   F
  0.8745899796091408  0.6205099821371007  0.1795700192501641   F   F   F
  0.8745899796407599  0.1205099970132650  0.1795700192501641   F   F   F
  0.5058599710709757  0.4967199861835070  0.2164999842604587   F   F   F
  0.5058599710526082  0.9967200160401646  0.2164999842604587   F   F   F
  0.5055800080640367  0.7577999830219184  0.2169499993436617   F   F   F
  0.5055800080464721  0.2578000128368458  0.2169499993436617   F   F   F
  0.0193300004927650  0.7462900281327407  0.2200000286167025   F   F   F
  0.0193300005111325  0.2462899982760831  0.2200000286167025   F   F   F
  0.0185199994464114  0.5008100271113634  0.2200999856070212   F   F   F
  0.0185199994912892  0.0008100000087836  0.2200999856070212   F   F   F
  0.7476250795008690  0.7754417245763340  0.2982997261783036   T   T   T
  0.7476250795020769  0.2754417245137423  0.2982997261783036   T   T   T
  0.5007273684828444  0.0053701629936204  0.2946599309811497   T   T   T
  0.5007273684996061  0.5053701332204233  0.2946599309811497   T   T   T
  0.4997563075117866  0.7522616709105323  0.2955610050564367   T   T   T
  0.4997563074942220  0.2522617007254597  0.2955610050564367   T   T   T
  0.8786777399066038  0.1189274293214654  0.3346815202184995   T   T   T
  0.8786777399241684  0.6189273995065382  0.3346815202184995   T   T   T
  0.4936601724301327  0.4948288398325815  0.3674604904549807   T   T   T
  0.4936601724289247  0.9948288398951731  0.3674604904549807   T   T   T
  0.4929965405176786  0.7491987093238951  0.3677655574737995   T   T   T
  0.4929965405797090  0.2491987391388227  0.3677655574737995   T   T   T
  0.0287548645132546  0.7449082152786455  0.3721277427969187   T   T   T
  0.0287548645620405  0.2449082003607509  0.3721277427969187   T   T   T
  0.0259541049994924  0.5013294631798837  0.3735111429416975   T   T   T
  0.0259541050154512  0.0013294334484166  0.3735111429416975   T   T   T
  0.1468300074027482  0.1234500035485908  0.1019200012007175   F   F   F
  0.1468300074347155  0.6234499812447680  0.1019200012007175   F   F   F
  0.8789299726851354  0.8864399790723922  0.1021600291039348   F   F   F
  0.8789299726675708  0.3864400088873197  0.1021600291039348   F   F   F
  0.0215799994728911  0.5031499863078324  0.1393700241951308   F   F   F
  0.0215799994474324  0.0031500000156086  0.1393700241951308   F   F   F
  0.2411800027183801  0.2620599865817894  0.1406500339623520   F   F   F
  0.2411800027187780  0.7620599865609279  0.1406500339623520   F   F   F
  0.3667599857108215  0.3804399966808560  0.1793900132116946   F   F   F
  0.3667599857096207  0.8804399967434478  0.1793900132116946   F   F   F
  0.1340100019752413  0.8798099756591498  0.1800000071499639   F   F   F
  0.1340100020388775  0.3798100053906168  0.1800000071499639   F   F   F
  0.7479799985746212  0.7691900133856109  0.2193300127877507   F   F   F
  0.7479799985742162  0.2691900134064724  0.2193300127877507   F   F   F
  0.7497900128127384  0.4864799976399965  0.2195799946750228   F   F   F
  0.7497900128131363  0.9864799976191350  0.2195799946750228   F   F   F
  0.1461388624733775  0.1242708848813365  0.2556096352159131   T   T   T
  0.1461388624909421  0.6242708550664092  0.2556096352159131   T   T   T
  0.8767816616656847  0.3860782597149587  0.2568278334065643   T   T   T
  0.8767816616036614  0.8860782299000312  0.2568278334065643   T   T   T
  0.0193062435277168  0.0109024377495531  0.2915483642834778   T   T   T
  0.0193062435805954  0.5109024143607955  0.2915483642834778   T   T   T
  0.2406505946098857  0.7585656260648538  0.2929136650254088   T   T   T
  0.2406505945923211  0.2585656558797810  0.2929136650254088   T   T   T
  0.3609365080574832  0.3791551077486883  0.3302955048663620   T   T   T
  0.3609365080578882  0.8791551077278198  0.3302955048663620   T   T   T
  0.1274691435383654  0.3811116603921055  0.3303026632625868   T   T   T
  0.1274691435199979  0.8811116902487632  0.3303026632625868   T   T   T
  0.7645217852174370  0.7820838483406456  0.3699763760834688   T   T   T
  0.7645217852170320  0.2820838483615142  0.3699763760834688   T   T   T
  0.7511368582856455  0.9393130892369193  0.3670717408467516   T   T   T
  0.7511368582852476  0.4393130892577879  0.3670717408467516   T   T   T
 
  0.00000000E+00  0.00000000E+00  0.00000000E+00
  0.00000000E+00  0.00000000E+00  0.00000000E+00
  0.00000000E+00  0.00000000E+00  0.00000000E+00
  0.00000000E+00  0.00000000E+00  0.00000000E+00
  0.00000000E+00  0.00000000E+00  0.00000000E+00
  0.00000000E+00  0.00000000E+00  0.00000000E+00
  0.00000000E+00  0.00000000E+00  0.00000000E+00
  0.00000000E+00  0.00000000E+00  0.00000000E+00
  0.00000000E+00  0.00000000E+00  0.00000000E+00
  0.00000000E+00  0.00000000E+00  0.00000000E+00
  0.00000000E+00  0.00000000E+00  0.00000000E+00
  0.00000000E+00  0.00000000E+00  0.00000000E+00
  0.00000000E+00  0.00000000E+00  0.00000000E+00
  0.00000000E+00  0.00000000E+00  0.00000000E+00
  0.00000000E+00  0.00000000E+00  0.00000000E+00
  0.00000000E+00  0.00000000E+00  0.00000000E+00
  0.00000000E+00  0.00000000E+00  0.00000000E+00
  0.00000000E+00  0.00000000E+00  0.00000000E+00
  0.00000000E+00  0.00000000E+00  0.00000000E+00
  0.00000000E+00  0.00000000E+00  0.00000000E+00
  0.00000000E+00  0.00000000E+00  0.00000000E+00
  0.00000000E+00  0.00000000E+00  0.00000000E+00
  0.00000000E+00  0.00000000E+00  0.00000000E+00
  0.00000000E+00  0.00000000E+00  0.00000000E+00
  0.00000000E+00  0.00000000E+00  0.00000000E+00
  0.00000000E+00  0.00000000E+00  0.00000000E+00
  0.00000000E+00  0.00000000E+00  0.00000000E+00
  0.00000000E+00  0.00000000E+00  0.00000000E+00
  0.00000000E+00  0.00000000E+00  0.00000000E+00
  0.00000000E+00  0.00000000E+00  0.00000000E+00
  0.00000000E+00  0.00000000E+00  0.00000000E+00
  0.00000000E+00  0.00000000E+00  0.00000000E+00
  0.00000000E+00  0.00000000E+00  0.00000000E+00
  0.00000000E+00  0.00000000E+00  0.00000000E+00
  0.00000000E+00  0.00000000E+00  0.00000000E+00
  0.00000000E+00  0.00000000E+00  0.00000000E+00
  0.00000000E+00  0.00000000E+00  0.00000000E+00
  0.00000000E+00  0.00000000E+00  0.00000000E+00
  0.00000000E+00  0.00000000E+00  0.00000000E+00
  0.00000000E+00  0.00000000E+00  0.00000000E+00
  0.00000000E+00  0.00000000E+00  0.00000000E+00
  0.00000000E+00  0.00000000E+00  0.00000000E+00
  0.00000000E+00  0.00000000E+00  0.00000000E+00
  0.00000000E+00  0.00000000E+00  0.00000000E+00
  0.00000000E+00  0.00000000E+00  0.00000000E+00
  0.00000000E+00  0.00000000E+00  0.00000000E+00
  0.00000000E+00  0.00000000E+00  0.00000000E+00
  0.00000000E+00  0.00000000E+00  0.00000000E+00
  0.00000000E+00  0.00000000E+00  0.00000000E+00
  0.00000000E+00  0.00000000E+00  0.00000000E+00
  0.00000000E+00  0.00000000E+00  0.00000000E+00
  0.00000000E+00  0.00000000E+00  0.00000000E+00
  0.00000000E+00  0.00000000E+00  0.00000000E+00
  0.00000000E+00  0.00000000E+00  0.00000000E+00
  0.00000000E+00  0.00000000E+00  0.00000000E+00
  0.00000000E+00  0.00000000E+00  0.00000000E+00
  0.00000000E+00  0.00000000E+00  0.00000000E+00
  0.00000000E+00  0.00000000E+00  0.00000000E+00
  0.00000000E+00  0.00000000E+00  0.00000000E+00
  0.00000000E+00  0.00000000E+00  0.00000000E+00
  0.00000000E+00  0.00000000E+00  0.00000000E+00
  0.00000000E+00  0.00000000E+00  0.00000000E+00
  0.00000000E+00  0.00000000E+00  0.00000000E+00
  0.00000000E+00  0.00000000E+00  0.00000000E+00
  0.00000000E+00  0.00000000E+00  0.00000000E+00
  0.00000000E+00  0.00000000E+00  0.00000000E+00
  0.00000000E+00  0.00000000E+00  0.00000000E+00
  0.00000000E+00  0.00000000E+00  0.00000000E+00
  0.00000000E+00  0.00000000E+00  0.00000000E+00
  0.00000000E+00  0.00000000E+00  0.00000000E+00
  0.00000000E+00  0.00000000E+00  0.00000000E+00
  0.00000000E+00  0.00000000E+00  0.00000000E+00
  0.00000000E+00  0.00000000E+00  0.00000000E+00
  0.00000000E+00  0.00000000E+00  0.00000000E+00
  0.00000000E+00  0.00000000E+00  0.00000000E+00
  0.00000000E+00  0.00000000E+00  0.00000000E+00
  0.00000000E+00  0.00000000E+00  0.00000000E+00
  0.00000000E+00  0.00000000E+00  0.00000000E+00
  0.00000000E+00  0.00000000E+00  0.00000000E+00
  0.00000000E+00  0.00000000E+00  0.00000000E+00
  0.00000000E+00  0.00000000E+00  0.00000000E+00
  0.00000000E+00  0.00000000E+00  0.00000000E+00
  0.00000000E+00  0.00000000E+00  0.00000000E+00
  0.00000000E+00  0.00000000E+00  0.00000000E+00
  0.00000000E+00  0.00000000E+00  0.00000000E+00
  0.00000000E+00  0.00000000E+00  0.00000000E+00
  0.00000000E+00  0.00000000E+00  0.00000000E+00
  0.00000000E+00  0.00000000E+00  0.00000000E+00
  0.00000000E+00  0.00000000E+00  0.00000000E+00
  0.00000000E+00  0.00000000E+00  0.00000000E+00
  0.00000000E+00  0.00000000E+00  0.00000000E+00
  0.00000000E+00  0.00000000E+00  0.00000000E+00
  0.00000000E+00  0.00000000E+00  0.00000000E+00
  0.00000000E+00  0.00000000E+00  0.00000000E+00
  0.00000000E+00  0.00000000E+00  0.00000000E+00
  0.00000000E+00  0.00000000E+00  0.00000000E+00
  0.00000000E+00  0.00000000E+00  0.00000000E+00
  0.00000000E+00  0.00000000E+00  0.00000000E+00
  0.00000000E+00  0.00000000E+00  0.00000000E+00
  0.00000000E+00  0.00000000E+00  0.00000000E+00
  0.00000000E+00  0.00000000E+00  0.00000000E+00
  0.00000000E+00  0.00000000E+00  0.00000000E+00
  0.00000000E+00  0.00000000E+00  0.00000000E+00
  0.00000000E+00  0.00000000E+00  0.00000000E+00
  0.00000000E+00  0.00000000E+00  0.00000000E+00
  0.00000000E+00  0.00000000E+00  0.00000000E+00
  0.00000000E+00  0.00000000E+00  0.00000000E+00
  0.00000000E+00  0.00000000E+00  0.00000000E+00
  0.00000000E+00  0.00000000E+00  0.00000000E+00
  0.00000000E+00  0.00000000E+00  0.00000000E+00
  0.00000000E+00  0.00000000E+00  0.00000000E+00
  0.00000000E+00  0.00000000E+00  0.00000000E+00
  0.00000000E+00  0.00000000E+00  0.00000000E+00
  0.00000000E+00  0.00000000E+00  0.00000000E+00
  0.00000000E+00  0.00000000E+00  0.00000000E+00
  0.00000000E+00  0.00000000E+00  0.00000000E+00
  0.00000000E+00  0.00000000E+00  0.00000000E+00
  0.00000000E+00  0.00000000E+00  0.00000000E+00
  0.00000000E+00  0.00000000E+00  0.00000000E+00
  0.00000000E+00  0.00000000E+00  0.00000000E+00
  0.00000000E+00  0.00000000E+00  0.00000000E+00
  0.00000000E+00  0.00000000E+00  0.00000000E+00
  0.00000000E+00  0.00000000E+00  0.00000000E+00
  0.00000000E+00  0.00000000E+00  0.00000000E+00
  0.00000000E+00  0.00000000E+00  0.00000000E+00
  0.00000000E+00  0.00000000E+00  0.00000000E+00
  0.00000000E+00  0.00000000E+00  0.00000000E+00
  0.00000000E+00  0.00000000E+00  0.00000000E+00
