HEA1\(0\0\1)                            
   1.00000000000000     
    12.5016002655000005    0.0000000000000000    0.0000000000000000
     0.0816354937000000   12.0767237501999993    0.0000000000000000
     0.0000000000000000    0.0000000000000000   33.5218009948999978
   Al   Cr   Ti   V 
    32    32    32    32
Selective dynamics
Direct
  0.3717800378647524  0.1203899979889798  0.0000000000000000   F   F   F
  0.3717800378768104  0.6203899979806948  0.0000000000000000   F   F   F
  0.3713200092373015  0.3736400008259935  0.0006399999810043   F   F   F
  0.3713200092493523  0.8736400008177085  0.0006399999810043   F   F   F
  0.8849499821787319  0.6201500296697589  0.0017000000092082   F   F   F
  0.8849499822013556  0.1201499998686302  0.0017000000092082   F   F   F
  0.0219800025297090  0.2459899931842671  0.0483100004455750   F   F   F
  0.0219800006393456  0.7459899782712824  0.0483100004455750   F   F   F
  0.0253100003999549  0.9998300075217017  0.0485999993928701   F   F   F
  0.0253100003879041  0.4998300075299866  0.0485999993928701   F   F   F
  0.3682900071271575  0.6214900016965004  0.0890699997429820   F   F   F
  0.3682900071151067  0.1214900017047853  0.0890699997429820   F   F   F
  0.6534000038957473  0.6167700290301568  0.0917299985901039   F   F   F
  0.6534000635107375  0.1167699992290281  0.0917299985901039   F   F   F
  0.8866099714935558  0.3759900331350039  0.0949599966446968   F   F   F
  0.8866100311673293  0.8759899735079060  0.0949599966446968   F   F   F
  0.3665874573667604  0.1215318597276949  0.1767697869157248   T   T   T
  0.3665874573788112  0.6215318597194106  0.1767697869157248   T   T   T
  0.3690517977553322  0.3751050696925410  0.1780589438065298   T   T   T
  0.3690517977220717  0.8751050398748491  0.1780589438065298   T   T   T
  0.8763697947076797  0.1225479759812386  0.1792112394686402   T   T   T
  0.8763697947544050  0.6225479461635474  0.1792112394686402   T   T   T
  0.0179126050656844  0.7436625785614229  0.2211055399411865   T   T   T
  0.0179126050256596  0.2436625338555875  0.2211055399411865   T   T   T
  0.0206293081966128  0.5056704195073588  0.2210004304588181   T   T   T
  0.0206293063232029  0.0056704105728165  0.2210004304588181   T   T   T
  0.3539363423401263  0.1204055234793939  0.2684535494283982   T   T   T
  0.3539363423695144  0.6204055085664091  0.2684535494283982   T   T   T
  0.6570643807356332  0.6154977080782243  0.2733194765427264   T   T   T
  0.6570643211451993  0.1154977304435595  0.2733194765427264   T   T   T
  0.9087133232953606  0.3755383224252361  0.2673170583588302   T   T   T
  0.9087132637150377  0.8755383224169586  0.2673170583588302   T   T   T
  0.6503000259764988  0.3742299974299854  0.0012199999637943   F   F   F
  0.6503000259538751  0.8742300272311141  0.0012199999637943   F   F   F
  0.1416900008782420  0.8733500242419083  0.0022100000537364   F   F   F
  0.1416900009008657  0.3733499944407797  0.0022100000537364   F   F   F
  0.2440299987539447  0.4958699942027565  0.0445999987359684   F   F   F
  0.2440299987659955  0.9958699941944786  0.0445999987359684   F   F   F
  0.7584599852973142  0.9887599348956115  0.0449000000993109   F   F   F
  0.7584599852959002  0.4887599945227095  0.0449000000993109   F   F   F
  0.6417099237530763  0.8769000172604464  0.0913399979453899   F   F   F
  0.6417099833227553  0.3768999576499041  0.0913399979453899   F   F   F
  0.2484299987915577  0.2522099912196438  0.1333599984583174   F   F   F
  0.2484299987689340  0.7522100210207725  0.1333599984583174   F   F   F
  0.2485699802626939  0.4958600103691921  0.1337099969265338   F   F   F
  0.2485699802294334  0.9958599805515007  0.1337099969265338   F   F   F
  0.7520200014310774  0.9901000261599933  0.1391800046098339   F   F   F
  0.7520200610460677  0.4900999963588646  0.1391800046098339   F   F   F
  0.6436994420780671  0.8769774868449085  0.1797900794270881   T   T   T
  0.6436994421006907  0.3769774570437802  0.1797900794270881   T   T   T
  0.1413092767441431  0.8753600933471593  0.1789100425591971   T   T   T
  0.1413092766867738  0.3753600635460309  0.1789100425591971   T   T   T
  0.2416322828614123  0.4973010220377674  0.2205439273526650   T   T   T
  0.2416322828734631  0.9973010220294825  0.2205439273526650   T   T   T
  0.7508122323495094  0.9895239546386484  0.2214767035445509   T   T   T
  0.7508122323721331  0.4895239248375199  0.2214767035445509   T   T   T
  0.6071921546189254  0.3715047800650726  0.2674206511344871   T   T   T
  0.6071921546416201  0.8715048396756150  0.2674206511344871   T   T   T
  0.2166478499832626  0.2578792960286175  0.3075506903127291   T   T   T
  0.2166478499606389  0.7578793258297459  0.3075506903127291   T   T   T
  0.2079777427395462  0.9907565250485926  0.3096294089949563   T   T   T
  0.2079777129366270  0.4907565548662765  0.3096294089949563   T   T   T
  0.7521797753447292  0.4369727849894594  0.3069534380948781   T   T   T
  0.7521797753567800  0.9369727849811743  0.3069534380948781   T   T   T
  0.8915300369434576  0.8793799877076864  0.0015000000151417   F   F   F
  0.8915299773390331  0.3793799877159643  0.0015000000151417   F   F   F
  0.5210300087671627  0.2497600019169113  0.0451700016723535   F   F   F
  0.5210300088032511  0.7497599124804069  0.0451700016723535   F   F   F
  0.5226600170223392  0.9926900267799397  0.0452699996408583   F   F   F
  0.5226600170449629  0.4926899969788110  0.0452699996408583   F   F   F
  0.7582899927951914  0.7575400471380718  0.0454999990672320   F   F   F
  0.7582899927725038  0.2575399875275366  0.0454999990672320   F   F   F
  0.3688499927373456  0.8751800059867207  0.0893099978564820   F   F   F
  0.3688499927252948  0.3751800059949986  0.0893099978564820   F   F   F
  0.8825799226738482  0.1189600005528177  0.0958200022572981   F   F   F
  0.8825799822922562  0.6189600229015895  0.0958200022572981   F   F   F
  0.5178599954008689  0.7513899803205888  0.1348299980268877   F   F   F
  0.5178599953541365  0.2513900101382802  0.1348299980268877   F   F   F
  0.5172399878445972  0.4927099942897541  0.1351500004635540   F   F   F
  0.5172399878566480  0.9927099942814763  0.1351500004635540   F   F   F
  0.8853939916806376  0.8799701354439567  0.1796564189906735   T   T   T
  0.8853939917144452  0.3799701651788418  0.1796564189906735   T   T   T
  0.5095793451935968  0.7432397920527058  0.2239835569411770   T   T   T
  0.5095793451580413  0.2432398814064113  0.2239835569411770   T   T   T
  0.5120926883902043  0.5023225500358957  0.2241291098223576   T   T   T
  0.5120926883675806  0.0023225798370243  0.2241291098223576   T   T   T
  0.7532497613563690  0.7619183061307012  0.2252466272248860   T   T   T
  0.7532497613336743  0.2619182465201667  0.2252466272248860   T   T   T
  0.3605337573447146  0.8735079504666424  0.2663561909349433   T   T   T
  0.3605337871688435  0.3735079504749205  0.2663561909349433   T   T   T
  0.8883577774942937  0.6204603535731522  0.2731121753350492   T   T   T
  0.8883577774682523  0.1204603312243806  0.2731121753350492   T   T   T
  0.5029534624497316  0.2442165642657622  0.3073991763738591   T   T   T
  0.5029534625071008  0.7442165940668904  0.3073991763738591   T   T   T
  0.5016333867673715  0.9936990496616791  0.3079906277708323   T   T   T
  0.5016333867206391  0.4936990794793637  0.3079906277708323   T   T   T
  0.6539899707042949  0.1162499934617429  0.0001899999943618   F   F   F
  0.6539899706536971  0.6162499785487583  0.0001899999943618   F   F   F
  0.1466500013870018  0.6212400198253931  0.0014600000461655   F   F   F
  0.1466500014096255  0.1212399900242573  0.0014600000461655   F   F   F
  0.2437299937258359  0.7500500082938473  0.0439700000075831   F   F   F
  0.2437299937137851  0.2500500083021251  0.0439700000075831   F   F   F
  0.1462800055462878  0.1213999986524286  0.0946300029787395   F   F   F
  0.1462800055583386  0.6213999986441436  0.0946300029787395   F   F   F
  0.1417199969327285  0.3723199963835810  0.0956000015180436   F   F   F
  0.1417199969341425  0.8723199367564831  0.0956000015180436   F   F   F
  0.7483199834812737  0.7583900093639500  0.1392699927044561   F   F   F
  0.7483199834692229  0.2583900093722278  0.1392699927044561   F   F   F
  0.0245299990870933  0.9997599720536812  0.1394499987250413   F   F   F
  0.0245299991203538  0.4997600018713726  0.1394499987250413   F   F   F
  0.0245399996771383  0.7477800250130286  0.1397099941829651   F   F   F
  0.0245399996997619  0.2477799952119000  0.1397099941829651   F   F   F
  0.6524608905976435  0.1172098716361304  0.1783852756203615   T   T   T
  0.6524608905951637  0.6172098493536026  0.1783852756203615   T   T   T
  0.1462067592594703  0.6233898094690056  0.1777924469257788   T   T   T
  0.1462067592334360  0.1233897871202266  0.1777924469257788   T   T   T
  0.2448917910060452  0.2508444750166167  0.2210028023698022   T   T   T
  0.2448917910181031  0.7508444750083385  0.2210028023698022   T   T   T
  0.1388349799911964  0.1234271343706980  0.2656838334509153   T   T   T
  0.1388349800032472  0.6234271343624198  0.2656838334509153   T   T   T
  0.1300275515223859  0.8743167092973907  0.2662504096833962   T   T   T
  0.1300275514756535  0.3743167391150752  0.2662504096833962   T   T   T
  0.7558148638943621  0.2953978331864577  0.3128242964435695   T   T   T
  0.7558148639064129  0.7953978331781804  0.3128242964435695   T   T   T
  0.0313197096069669  0.5075481646085860  0.3121741428417473   T   T   T
  0.0313197096623963  0.0075481910313184  0.3121741428417473   T   T   T
  0.0369881661602529  0.7392000813603764  0.3116957555508175   T   T   T
  0.0369881661543625  0.2392000069279410  0.3116957555508175   T   T   T
 
  0.00000000E+00  0.00000000E+00  0.00000000E+00
  0.00000000E+00  0.00000000E+00  0.00000000E+00
  0.00000000E+00  0.00000000E+00  0.00000000E+00
  0.00000000E+00  0.00000000E+00  0.00000000E+00
  0.00000000E+00  0.00000000E+00  0.00000000E+00
  0.00000000E+00  0.00000000E+00  0.00000000E+00
  0.00000000E+00  0.00000000E+00  0.00000000E+00
  0.00000000E+00  0.00000000E+00  0.00000000E+00
  0.00000000E+00  0.00000000E+00  0.00000000E+00
  0.00000000E+00  0.00000000E+00  0.00000000E+00
  0.00000000E+00  0.00000000E+00  0.00000000E+00
  0.00000000E+00  0.00000000E+00  0.00000000E+00
  0.00000000E+00  0.00000000E+00  0.00000000E+00
  0.00000000E+00  0.00000000E+00  0.00000000E+00
  0.00000000E+00  0.00000000E+00  0.00000000E+00
  0.00000000E+00  0.00000000E+00  0.00000000E+00
  0.00000000E+00  0.00000000E+00  0.00000000E+00
  0.00000000E+00  0.00000000E+00  0.00000000E+00
  0.00000000E+00  0.00000000E+00  0.00000000E+00
  0.00000000E+00  0.00000000E+00  0.00000000E+00
  0.00000000E+00  0.00000000E+00  0.00000000E+00
  0.00000000E+00  0.00000000E+00  0.00000000E+00
  0.00000000E+00  0.00000000E+00  0.00000000E+00
  0.00000000E+00  0.00000000E+00  0.00000000E+00
  0.00000000E+00  0.00000000E+00  0.00000000E+00
  0.00000000E+00  0.00000000E+00  0.00000000E+00
  0.00000000E+00  0.00000000E+00  0.00000000E+00
  0.00000000E+00  0.00000000E+00  0.00000000E+00
  0.00000000E+00  0.00000000E+00  0.00000000E+00
  0.00000000E+00  0.00000000E+00  0.00000000E+00
  0.00000000E+00  0.00000000E+00  0.00000000E+00
  0.00000000E+00  0.00000000E+00  0.00000000E+00
  0.00000000E+00  0.00000000E+00  0.00000000E+00
  0.00000000E+00  0.00000000E+00  0.00000000E+00
  0.00000000E+00  0.00000000E+00  0.00000000E+00
  0.00000000E+00  0.00000000E+00  0.00000000E+00
  0.00000000E+00  0.00000000E+00  0.00000000E+00
  0.00000000E+00  0.00000000E+00  0.00000000E+00
  0.00000000E+00  0.00000000E+00  0.00000000E+00
  0.00000000E+00  0.00000000E+00  0.00000000E+00
  0.00000000E+00  0.00000000E+00  0.00000000E+00
  0.00000000E+00  0.00000000E+00  0.00000000E+00
  0.00000000E+00  0.00000000E+00  0.00000000E+00
  0.00000000E+00  0.00000000E+00  0.00000000E+00
  0.00000000E+00  0.00000000E+00  0.00000000E+00
  0.00000000E+00  0.00000000E+00  0.00000000E+00
  0.00000000E+00  0.00000000E+00  0.00000000E+00
  0.00000000E+00  0.00000000E+00  0.00000000E+00
  0.00000000E+00  0.00000000E+00  0.00000000E+00
  0.00000000E+00  0.00000000E+00  0.00000000E+00
  0.00000000E+00  0.00000000E+00  0.00000000E+00
  0.00000000E+00  0.00000000E+00  0.00000000E+00
  0.00000000E+00  0.00000000E+00  0.00000000E+00
  0.00000000E+00  0.00000000E+00  0.00000000E+00
  0.00000000E+00  0.00000000E+00  0.00000000E+00
  0.00000000E+00  0.00000000E+00  0.00000000E+00
  0.00000000E+00  0.00000000E+00  0.00000000E+00
  0.00000000E+00  0.00000000E+00  0.00000000E+00
  0.00000000E+00  0.00000000E+00  0.00000000E+00
  0.00000000E+00  0.00000000E+00  0.00000000E+00
  0.00000000E+00  0.00000000E+00  0.00000000E+00
  0.00000000E+00  0.00000000E+00  0.00000000E+00
  0.00000000E+00  0.00000000E+00  0.00000000E+00
  0.00000000E+00  0.00000000E+00  0.00000000E+00
  0.00000000E+00  0.00000000E+00  0.00000000E+00
  0.00000000E+00  0.00000000E+00  0.00000000E+00
  0.00000000E+00  0.00000000E+00  0.00000000E+00
  0.00000000E+00  0.00000000E+00  0.00000000E+00
  0.00000000E+00  0.00000000E+00  0.00000000E+00
  0.00000000E+00  0.00000000E+00  0.00000000E+00
  0.00000000E+00  0.00000000E+00  0.00000000E+00
  0.00000000E+00  0.00000000E+00  0.00000000E+00
  0.00000000E+00  0.00000000E+00  0.00000000E+00
  0.00000000E+00  0.00000000E+00  0.00000000E+00
  0.00000000E+00  0.00000000E+00  0.00000000E+00
  0.00000000E+00  0.00000000E+00  0.00000000E+00
  0.00000000E+00  0.00000000E+00  0.00000000E+00
  0.00000000E+00  0.00000000E+00  0.00000000E+00
  0.00000000E+00  0.00000000E+00  0.00000000E+00
  0.00000000E+00  0.00000000E+00  0.00000000E+00
  0.00000000E+00  0.00000000E+00  0.00000000E+00
  0.00000000E+00  0.00000000E+00  0.00000000E+00
  0.00000000E+00  0.00000000E+00  0.00000000E+00
  0.00000000E+00  0.00000000E+00  0.00000000E+00
  0.00000000E+00  0.00000000E+00  0.00000000E+00
  0.00000000E+00  0.00000000E+00  0.00000000E+00
  0.00000000E+00  0.00000000E+00  0.00000000E+00
  0.00000000E+00  0.00000000E+00  0.00000000E+00
  0.00000000E+00  0.00000000E+00  0.00000000E+00
  0.00000000E+00  0.00000000E+00  0.00000000E+00
  0.00000000E+00  0.00000000E+00  0.00000000E+00
  0.00000000E+00  0.00000000E+00  0.00000000E+00
  0.00000000E+00  0.00000000E+00  0.00000000E+00
  0.00000000E+00  0.00000000E+00  0.00000000E+00
  0.00000000E+00  0.00000000E+00  0.00000000E+00
  0.00000000E+00  0.00000000E+00  0.00000000E+00
  0.00000000E+00  0.00000000E+00  0.00000000E+00
  0.00000000E+00  0.00000000E+00  0.00000000E+00
  0.00000000E+00  0.00000000E+00  0.00000000E+00
  0.00000000E+00  0.00000000E+00  0.00000000E+00
  0.00000000E+00  0.00000000E+00  0.00000000E+00
  0.00000000E+00  0.00000000E+00  0.00000000E+00
  0.00000000E+00  0.00000000E+00  0.00000000E+00
  0.00000000E+00  0.00000000E+00  0.00000000E+00
  0.00000000E+00  0.00000000E+00  0.00000000E+00
  0.00000000E+00  0.00000000E+00  0.00000000E+00
  0.00000000E+00  0.00000000E+00  0.00000000E+00
  0.00000000E+00  0.00000000E+00  0.00000000E+00
  0.00000000E+00  0.00000000E+00  0.00000000E+00
  0.00000000E+00  0.00000000E+00  0.00000000E+00
  0.00000000E+00  0.00000000E+00  0.00000000E+00
  0.00000000E+00  0.00000000E+00  0.00000000E+00
  0.00000000E+00  0.00000000E+00  0.00000000E+00
  0.00000000E+00  0.00000000E+00  0.00000000E+00
  0.00000000E+00  0.00000000E+00  0.00000000E+00
  0.00000000E+00  0.00000000E+00  0.00000000E+00
  0.00000000E+00  0.00000000E+00  0.00000000E+00
  0.00000000E+00  0.00000000E+00  0.00000000E+00
  0.00000000E+00  0.00000000E+00  0.00000000E+00
  0.00000000E+00  0.00000000E+00  0.00000000E+00
  0.00000000E+00  0.00000000E+00  0.00000000E+00
  0.00000000E+00  0.00000000E+00  0.00000000E+00
  0.00000000E+00  0.00000000E+00  0.00000000E+00
  0.00000000E+00  0.00000000E+00  0.00000000E+00
  0.00000000E+00  0.00000000E+00  0.00000000E+00
  0.00000000E+00  0.00000000E+00  0.00000000E+00
  0.00000000E+00  0.00000000E+00  0.00000000E+00
  0.00000000E+00  0.00000000E+00  0.00000000E+00
