HEA1\(0\0\1)                            
   1.00000000000000     
    12.5016002655000005    0.0000000000000000    0.0000000000000000
     0.0816354937000000   12.0767237501999993    0.0000000000000000
     0.0000000000000000    0.0000000000000000   33.5218009948999978
   Al   Cr   Ti   V 
    32    26    28    26
Selective dynamics
Direct
  0.3717800378647524  0.1203899979889798  0.0000000000000000   F   F   F
  0.3717800378768104  0.6203899979806948  0.0000000000000000   F   F   F
  0.3713200092373015  0.3736400008259935  0.0006399999810043   F   F   F
  0.3713200092493523  0.8736400008177085  0.0006399999810043   F   F   F
  0.8849499821787319  0.6201500296697589  0.0017000000092082   F   F   F
  0.8849499822013556  0.1201499998686302  0.0017000000092082   F   F   F
  0.0219800025297090  0.2459899931842671  0.0483100004455750   F   F   F
  0.0219800006393456  0.7459899782712824  0.0483100004455750   F   F   F
  0.0253100003999549  0.9998300075217017  0.0485999993928701   F   F   F
  0.0253100003879041  0.4998300075299866  0.0485999993928701   F   F   F
  0.3682900071271575  0.6214900016965004  0.0890699997429820   F   F   F
  0.3682900071151067  0.1214900017047853  0.0890699997429820   F   F   F
  0.6534000038957473  0.6167700290301568  0.0917299985901039   F   F   F
  0.6534000635107375  0.1167699992290281  0.0917299985901039   F   F   F
  0.8866099714935558  0.3759900331350039  0.0949599966446968   F   F   F
  0.8866100311673293  0.8759899735079060  0.0949599966446968   F   F   F
  0.3713903378132309  0.1229996988027875  0.1776726024097101   T   T   T
  0.3713903378252817  0.6229996987945025  0.1776726024097101   T   T   T
  0.3640423527631226  0.3740991810800406  0.1785730329794366   T   T   T
  0.3640423527298621  0.8740991512623496  0.1785730329794366   T   T   T
  0.8771660065883259  0.1211608929520244  0.1794354130262836   T   T   T
  0.8771660066350512  0.6211608631343333  0.1794354130262836   T   T   T
  0.0199491853148656  0.7419489517639936  0.2240211516945746   T   T   T
  0.0199491852748408  0.2419489070581578  0.2240211516945746   T   T   T
  0.0222823349486177  0.5035013887802792  0.2222993979115288   T   T   T
  0.0222823330752078  0.0035013798457368  0.2222993979115288   T   T   T
  0.3832291946268149  0.1245492030687851  0.2655687871182158   T   T   T
  0.3832291946562029  0.6245491881558004  0.2655687871182158   T   T   T
  0.6369184919680587  0.6190603506357845  0.2684422120351916   T   T   T
  0.6369184323776248  0.1190603730011192  0.2684422120351916   T   T   T
  0.8949020499543119  0.3761246780778684  0.2703528033323171   T   T   T
  0.8949019903739890  0.8761246780695905  0.2703528033323171   T   T   T
  0.6503000259764988  0.3742299974299854  0.0012199999637943   F   F   F
  0.6503000259538751  0.8742300272311141  0.0012199999637943   F   F   F
  0.1416900008782420  0.8733500242419083  0.0022100000537364   F   F   F
  0.1416900009008657  0.3733499944407797  0.0022100000537364   F   F   F
  0.2440299987539447  0.4958699942027565  0.0445999987359684   F   F   F
  0.2440299987659955  0.9958699941944786  0.0445999987359684   F   F   F
  0.7584599852973142  0.9887599348956115  0.0449000000993109   F   F   F
  0.7584599852959002  0.4887599945227095  0.0449000000993109   F   F   F
  0.6417099237530763  0.8769000172604464  0.0913399979453899   F   F   F
  0.6417099833227553  0.3768999576499041  0.0913399979453899   F   F   F
  0.2484299987915577  0.2522099912196438  0.1333599984583174   F   F   F
  0.2484299987689340  0.7522100210207725  0.1333599984583174   F   F   F
  0.2485699802626939  0.4958600103691921  0.1337099969265338   F   F   F
  0.2485699802294334  0.9958599805515007  0.1337099969265338   F   F   F
  0.7520200014310774  0.9901000261599933  0.1391800046098339   F   F   F
  0.7520200610460677  0.4900999963588646  0.1391800046098339   F   F   F
  0.6488975839300258  0.8756160483000699  0.1780105090902863   T   T   T
  0.6488975839526495  0.3756160184989413  0.1780105090902863   T   T   T
  0.1381746890899944  0.8721358608947194  0.1784350783875101   T   T   T
  0.1381746890326252  0.3721358310935910  0.1784350783875101   T   T   T
  0.2453924866510947  0.4986931121648432  0.2256834975728104   T   T   T
  0.2453924866631455  0.9986931121565579  0.2256834975728104   T   T   T
  0.7550553155716053  0.9906577386562571  0.2240375913875191   T   T   T
  0.7550553155942290  0.4906577088551282  0.2240375913875191   T   T   T
  0.6561657959785068  0.3908621070108524  0.2624247194966928   T   T   T
  0.6561657960012015  0.8908621666213949  0.2624247194966928   T   T   T
  0.8915300369434576  0.8793799877076864  0.0015000000151417   F   F   F
  0.8915299773390331  0.3793799877159643  0.0015000000151417   F   F   F
  0.5210300087671627  0.2497600019169113  0.0451700016723535   F   F   F
  0.5210300088032511  0.7497599124804069  0.0451700016723535   F   F   F
  0.5226600170223392  0.9926900267799397  0.0452699996408583   F   F   F
  0.5226600170449629  0.4926899969788110  0.0452699996408583   F   F   F
  0.7582899927951914  0.7575400471380718  0.0454999990672320   F   F   F
  0.7582899927725038  0.2575399875275366  0.0454999990672320   F   F   F
  0.3688499927373456  0.8751800059867207  0.0893099978564820   F   F   F
  0.3688499927252948  0.3751800059949986  0.0893099978564820   F   F   F
  0.8825799226738482  0.1189600005528177  0.0958200022572981   F   F   F
  0.8825799822922562  0.6189600229015895  0.0958200022572981   F   F   F
  0.5178599954008689  0.7513899803205888  0.1348299980268877   F   F   F
  0.5178599953541365  0.2513900101382802  0.1348299980268877   F   F   F
  0.5172399878445972  0.4927099942897541  0.1351500004635540   F   F   F
  0.5172399878566480  0.9927099942814763  0.1351500004635540   F   F   F
  0.8879159696870486  0.8773236486813654  0.1783362428347071   T   T   T
  0.8879159697208562  0.3773236784162507  0.1783362428347071   T   T   T
  0.5171369457140630  0.7603906259907897  0.2220771618552215   T   T   T
  0.5171369456785074  0.2603907153444943  0.2220771618552215   T   T   T
  0.5166054204855263  0.4883486936785827  0.2217624165022182   T   T   T
  0.5166054204629026  0.9883487234797114  0.2217624165022182   T   T   T
  0.7547914410733846  0.7548168599528912  0.2245813034859098   T   T   T
  0.7547914410506898  0.2548168003423562  0.2245813034859097   T   T   T
  0.3678778447037755  0.8770760950270318  0.2663981441837109   T   T   T
  0.3678778745279044  0.3770760950353100  0.2663981441837109   T   T   T
  0.8729381484414551  0.6093752567204327  0.2686102277272877   T   T   T
  0.8729381484154137  0.1093752343716609  0.2686102277272877   T   T   T
  0.6539899707042949  0.1162499934617429  0.0001899999943618   F   F   F
  0.6539899706536971  0.6162499785487583  0.0001899999943618   F   F   F
  0.1466500013870018  0.6212400198253931  0.0014600000461655   F   F   F
  0.1466500014096255  0.1212399900242573  0.0014600000461655   F   F   F
  0.2437299937258359  0.7500500082938473  0.0439700000075831   F   F   F
  0.2437299937137851  0.2500500083021251  0.0439700000075831   F   F   F
  0.1462800055462878  0.1213999986524286  0.0946300029787395   F   F   F
  0.1462800055583386  0.6213999986441436  0.0946300029787395   F   F   F
  0.1417199969327285  0.3723199963835810  0.0956000015180436   F   F   F
  0.1417199969341425  0.8723199367564831  0.0956000015180436   F   F   F
  0.7483199834812737  0.7583900093639500  0.1392699927044561   F   F   F
  0.7483199834692229  0.2583900093722278  0.1392699927044561   F   F   F
  0.0245299990870933  0.9997599720536812  0.1394499987250413   F   F   F
  0.0245299991203538  0.4997600018713726  0.1394499987250413   F   F   F
  0.0245399996771383  0.7477800250130286  0.1397099941829651   F   F   F
  0.0245399996997619  0.2477799952119000  0.1397099941829651   F   F   F
  0.6430074312197881  0.1201398301403347  0.1772125442906886   T   T   T
  0.6430074312173083  0.6201398078578069  0.1772125442906886   T   T   T
  0.1479403563614213  0.6229440607802701  0.1775081494892430   T   T   T
  0.1479403563353870  0.1229440384314913  0.1775081494892430   T   T   T
  0.2446093964282670  0.2480767249502636  0.2257993955990911   T   T   T
  0.2446093964403249  0.7480767249419860  0.2257993955990911   T   T   T
  0.1593349286509596  0.1166170234639724  0.2657358940962083   T   T   T
  0.1593349286630104  0.6166170234556948  0.2657358940962083   T   T   T
  0.1480796766944627  0.8779181675839256  0.2635517095955372   T   T   T
  0.1480796766477303  0.3779181974016100  0.2635517095955372   T   T   T
 
  0.00000000E+00  0.00000000E+00  0.00000000E+00
  0.00000000E+00  0.00000000E+00  0.00000000E+00
  0.00000000E+00  0.00000000E+00  0.00000000E+00
  0.00000000E+00  0.00000000E+00  0.00000000E+00
  0.00000000E+00  0.00000000E+00  0.00000000E+00
  0.00000000E+00  0.00000000E+00  0.00000000E+00
  0.00000000E+00  0.00000000E+00  0.00000000E+00
  0.00000000E+00  0.00000000E+00  0.00000000E+00
  0.00000000E+00  0.00000000E+00  0.00000000E+00
  0.00000000E+00  0.00000000E+00  0.00000000E+00
  0.00000000E+00  0.00000000E+00  0.00000000E+00
  0.00000000E+00  0.00000000E+00  0.00000000E+00
  0.00000000E+00  0.00000000E+00  0.00000000E+00
  0.00000000E+00  0.00000000E+00  0.00000000E+00
  0.00000000E+00  0.00000000E+00  0.00000000E+00
  0.00000000E+00  0.00000000E+00  0.00000000E+00
  0.00000000E+00  0.00000000E+00  0.00000000E+00
  0.00000000E+00  0.00000000E+00  0.00000000E+00
  0.00000000E+00  0.00000000E+00  0.00000000E+00
  0.00000000E+00  0.00000000E+00  0.00000000E+00
  0.00000000E+00  0.00000000E+00  0.00000000E+00
  0.00000000E+00  0.00000000E+00  0.00000000E+00
  0.00000000E+00  0.00000000E+00  0.00000000E+00
  0.00000000E+00  0.00000000E+00  0.00000000E+00
  0.00000000E+00  0.00000000E+00  0.00000000E+00
  0.00000000E+00  0.00000000E+00  0.00000000E+00
  0.00000000E+00  0.00000000E+00  0.00000000E+00
  0.00000000E+00  0.00000000E+00  0.00000000E+00
  0.00000000E+00  0.00000000E+00  0.00000000E+00
  0.00000000E+00  0.00000000E+00  0.00000000E+00
  0.00000000E+00  0.00000000E+00  0.00000000E+00
  0.00000000E+00  0.00000000E+00  0.00000000E+00
  0.00000000E+00  0.00000000E+00  0.00000000E+00
  0.00000000E+00  0.00000000E+00  0.00000000E+00
  0.00000000E+00  0.00000000E+00  0.00000000E+00
  0.00000000E+00  0.00000000E+00  0.00000000E+00
  0.00000000E+00  0.00000000E+00  0.00000000E+00
  0.00000000E+00  0.00000000E+00  0.00000000E+00
  0.00000000E+00  0.00000000E+00  0.00000000E+00
  0.00000000E+00  0.00000000E+00  0.00000000E+00
  0.00000000E+00  0.00000000E+00  0.00000000E+00
  0.00000000E+00  0.00000000E+00  0.00000000E+00
  0.00000000E+00  0.00000000E+00  0.00000000E+00
  0.00000000E+00  0.00000000E+00  0.00000000E+00
  0.00000000E+00  0.00000000E+00  0.00000000E+00
  0.00000000E+00  0.00000000E+00  0.00000000E+00
  0.00000000E+00  0.00000000E+00  0.00000000E+00
  0.00000000E+00  0.00000000E+00  0.00000000E+00
  0.00000000E+00  0.00000000E+00  0.00000000E+00
  0.00000000E+00  0.00000000E+00  0.00000000E+00
  0.00000000E+00  0.00000000E+00  0.00000000E+00
  0.00000000E+00  0.00000000E+00  0.00000000E+00
  0.00000000E+00  0.00000000E+00  0.00000000E+00
  0.00000000E+00  0.00000000E+00  0.00000000E+00
  0.00000000E+00  0.00000000E+00  0.00000000E+00
  0.00000000E+00  0.00000000E+00  0.00000000E+00
  0.00000000E+00  0.00000000E+00  0.00000000E+00
  0.00000000E+00  0.00000000E+00  0.00000000E+00
  0.00000000E+00  0.00000000E+00  0.00000000E+00
  0.00000000E+00  0.00000000E+00  0.00000000E+00
  0.00000000E+00  0.00000000E+00  0.00000000E+00
  0.00000000E+00  0.00000000E+00  0.00000000E+00
  0.00000000E+00  0.00000000E+00  0.00000000E+00
  0.00000000E+00  0.00000000E+00  0.00000000E+00
  0.00000000E+00  0.00000000E+00  0.00000000E+00
  0.00000000E+00  0.00000000E+00  0.00000000E+00
  0.00000000E+00  0.00000000E+00  0.00000000E+00
  0.00000000E+00  0.00000000E+00  0.00000000E+00
  0.00000000E+00  0.00000000E+00  0.00000000E+00
  0.00000000E+00  0.00000000E+00  0.00000000E+00
  0.00000000E+00  0.00000000E+00  0.00000000E+00
  0.00000000E+00  0.00000000E+00  0.00000000E+00
  0.00000000E+00  0.00000000E+00  0.00000000E+00
  0.00000000E+00  0.00000000E+00  0.00000000E+00
  0.00000000E+00  0.00000000E+00  0.00000000E+00
  0.00000000E+00  0.00000000E+00  0.00000000E+00
  0.00000000E+00  0.00000000E+00  0.00000000E+00
  0.00000000E+00  0.00000000E+00  0.00000000E+00
  0.00000000E+00  0.00000000E+00  0.00000000E+00
  0.00000000E+00  0.00000000E+00  0.00000000E+00
  0.00000000E+00  0.00000000E+00  0.00000000E+00
  0.00000000E+00  0.00000000E+00  0.00000000E+00
  0.00000000E+00  0.00000000E+00  0.00000000E+00
  0.00000000E+00  0.00000000E+00  0.00000000E+00
  0.00000000E+00  0.00000000E+00  0.00000000E+00
  0.00000000E+00  0.00000000E+00  0.00000000E+00
  0.00000000E+00  0.00000000E+00  0.00000000E+00
  0.00000000E+00  0.00000000E+00  0.00000000E+00
  0.00000000E+00  0.00000000E+00  0.00000000E+00
  0.00000000E+00  0.00000000E+00  0.00000000E+00
  0.00000000E+00  0.00000000E+00  0.00000000E+00
  0.00000000E+00  0.00000000E+00  0.00000000E+00
  0.00000000E+00  0.00000000E+00  0.00000000E+00
  0.00000000E+00  0.00000000E+00  0.00000000E+00
  0.00000000E+00  0.00000000E+00  0.00000000E+00
  0.00000000E+00  0.00000000E+00  0.00000000E+00
  0.00000000E+00  0.00000000E+00  0.00000000E+00
  0.00000000E+00  0.00000000E+00  0.00000000E+00
  0.00000000E+00  0.00000000E+00  0.00000000E+00
  0.00000000E+00  0.00000000E+00  0.00000000E+00
  0.00000000E+00  0.00000000E+00  0.00000000E+00
  0.00000000E+00  0.00000000E+00  0.00000000E+00
  0.00000000E+00  0.00000000E+00  0.00000000E+00
  0.00000000E+00  0.00000000E+00  0.00000000E+00
  0.00000000E+00  0.00000000E+00  0.00000000E+00
  0.00000000E+00  0.00000000E+00  0.00000000E+00
  0.00000000E+00  0.00000000E+00  0.00000000E+00
  0.00000000E+00  0.00000000E+00  0.00000000E+00
  0.00000000E+00  0.00000000E+00  0.00000000E+00
  0.00000000E+00  0.00000000E+00  0.00000000E+00
  0.00000000E+00  0.00000000E+00  0.00000000E+00
  0.00000000E+00  0.00000000E+00  0.00000000E+00
