HEA2\(0\0\1)                            
   1.00000000000000     
    12.5642004013000008    0.0000000000000000    0.0000000000000000
     0.2421838980000000   11.9822529565000000    0.0000000000000000
     0.0000000000000000    0.0000000000000000   38.5521011352999992
   Al   Cr   Ti   V 
    26    24    22    24
Selective dynamics
Direct
  0.3635599910815372  0.1327999979450283  0.1000000163796528   F   F   F
  0.3635599911311189  0.6327999829854036  0.1000000163796528   F   F   F
  0.3630599975212476  0.8825500011050451  0.1001000329776147   F   F   F
  0.3630599975208497  0.3825500011259066  0.1001000329776147   F   F   F
  0.8746200204048122  0.6248499751408190  0.1011999770987231   F   F   F
  0.8746200203728520  0.1248499974446347  0.1011999770987231   F   F   F
  0.6387900114169938  0.1256799996183560  0.1013799831371927   F   F   F
  0.6387900114002321  0.6256800293915603  0.1013799831371927   F   F   F
  0.0167500004279333  0.2490999996274397  0.1402400135864355   F   F   F
  0.0167500004095658  0.7491000294840902  0.1402400135864355   F   F   F
  0.3629299998672835  0.6314700245829385  0.1788499951481626   F   F   F
  0.3629299998044573  0.1314699948097342  0.1788499951481626   F   F   F
  0.6475999951435440  0.6221200227588426  0.1789000034212123   F   F   F
  0.6475999951763143  0.1221200004132967  0.1789000034212123   F   F   F
  0.8875100016396686  0.3803800046240511  0.1795499920926957   F   F   F
  0.8875100016572333  0.8803799748091237  0.1795499920926957   F   F   F
  0.3588714140217286  0.1307836309101069  0.2556426884699187   T   T   T
  0.3588714140697045  0.6307836160339425  0.2556426884699187   T   T   T
  0.3596876582667599  0.3794792843485483  0.2542670407407792   T   T   T
  0.3596876582655519  0.8794792844111399  0.2542670407407792   T   T   T
  0.8758718006181438  0.1242959189333456  0.2570088547019596   T   T   T
  0.8758718005853736  0.6242959412788912  0.2570088547019596   T   T   T
  0.6432659719971764  0.6327304727972748  0.2579613675119359   T   T   T
  0.6432659719503516  0.1327304504517289  0.2579613675119359   T   T   T
  0.0064771204848462  0.7540058272216518  0.2973826454695315   T   T   T
  0.0064771205336249  0.2540058123037504  0.2973826454695315   T   T   T
  0.6346499919912318  0.3826900124414863  0.1008499786134891   F   F   F
  0.6346499919916297  0.8826900124206176  0.1008499786134891   F   F   F
  0.1380400061836013  0.8806200027079214  0.1024600192901843   F   F   F
  0.1380400061831963  0.3806200027287829  0.1024600192901843   F   F   F
  0.7590600252291395  0.9907400012416048  0.1381400227528360   F   F   F
  0.7590600252303474  0.4907400011790060  0.1381400227528360   F   F   F
  0.2433999925756112  0.0082799997095861  0.1395900249408868   F   F   F
  0.2433999925721864  0.5082799792418129  0.1395900249408868   F   F   F
  0.1442299932197102  0.1233699992285722  0.1793900132116946   F   F   F
  0.1442299932040996  0.6233699917800593  0.1793900132116946   F   F   F
  0.6300799846535625  0.8781700134524257  0.1794199943532107   F   F   F
  0.6300799846547704  0.3781700133898340  0.1794199943532107   F   F   F
  0.2396100014537836  0.7622699737819545  0.2158499956149100   F   F   F
  0.2396100014362190  0.2622700035968819  0.2158499956149100   F   F   F
  0.2438900023932007  0.5062100291172413  0.2159100174796507   F   F   F
  0.2438900024019190  0.0062099997613245  0.2159100174796507   F   F   F
  0.6317629367954307  0.8717858667793833  0.2572290782836573   T   T   T
  0.6317629367950328  0.3717858668002451  0.2572290782836573   T   T   T
  0.1372035631538630  0.8758321720165470  0.2564277902363134   T   T   T
  0.1372035631550709  0.3758321719539554  0.2564277902363134   T   T   T
  0.7529972627301336  0.9747251593543711  0.2861702312828879   T   T   T
  0.7529972627297357  0.4747251593752327  0.2861702312828879   T   T   T
  0.2238986990686369  0.5028525676578427  0.2888826014024696   T   T   T
  0.2238986990632509  0.0028525844535170  0.2888826014024696   T   T   T
  0.7500600218449875  0.2694900035680092  0.1399000286928995   F   F   F
  0.7500600218453854  0.7694900035471477  0.1399000286928995   F   F   F
  0.5060300231016228  0.0000199999950681  0.1404899954737004   F   F   F
  0.5060300231347270  0.5000200271811082  0.1404899954737004   F   F   F
  0.5054200291820976  0.2601299881846657  0.1413599848649980   F   F   F
  0.5054200291824955  0.7601299881637971  0.1413599848649980   F   F   F
  0.8745899796091408  0.6205099821371007  0.1795700192501641   F   F   F
  0.8745899796407599  0.1205099970132650  0.1795700192501641   F   F   F
  0.5058599710709757  0.4967199861835070  0.2164999842604587   F   F   F
  0.5058599710526082  0.9967200160401646  0.2164999842604587   F   F   F
  0.5055800080640367  0.7577999830219184  0.2169499993436617   F   F   F
  0.5055800080464721  0.2578000128368458  0.2169499993436617   F   F   F
  0.0193300004927650  0.7462900281327407  0.2200000286167025   F   F   F
  0.0193300005111325  0.2462899982760831  0.2200000286167025   F   F   F
  0.0185199994464114  0.5008100271113634  0.2200999856070212   F   F   F
  0.0185199994912892  0.0008100000087836  0.2200999856070212   F   F   F
  0.7654909887574158  0.7723572175474995  0.2985153111078921   T   T   T
  0.7654909887586238  0.2723572174849078  0.2985153111078921   T   T   T
  0.5116638984757094  0.9946491402391511  0.2907105522221913   T   T   T
  0.5116638984924711  0.4946491104659541  0.2907105522221913   T   T   T
  0.5026986944895858  0.7559999538780526  0.2924824961181776   T   T   T
  0.5026986944720212  0.2559999836929802  0.2924824961181776   T   T   T
  0.1468300074027482  0.1234500035485908  0.1019200012007175   F   F   F
  0.1468300074347155  0.6234499812447680  0.1019200012007175   F   F   F
  0.8789299726851354  0.8864399790723922  0.1021600291039348   F   F   F
  0.8789299726675708  0.3864400088873197  0.1021600291039348   F   F   F
  0.0215799994728911  0.5031499863078324  0.1393700241951308   F   F   F
  0.0215799994474324  0.0031500000156086  0.1393700241951308   F   F   F
  0.2411800027183801  0.2620599865817894  0.1406500339623520   F   F   F
  0.2411800027187780  0.7620599865609279  0.1406500339623520   F   F   F
  0.3667599857108215  0.3804399966808560  0.1793900132116946   F   F   F
  0.3667599857096207  0.8804399967434478  0.1793900132116946   F   F   F
  0.1340100019752413  0.8798099756591498  0.1800000071499639   F   F   F
  0.1340100020388775  0.3798100053906168  0.1800000071499639   F   F   F
  0.7479799985746212  0.7691900133856109  0.2193300127877507   F   F   F
  0.7479799985742162  0.2691900134064724  0.2193300127877507   F   F   F
  0.7497900128127384  0.4864799976399965  0.2195799946750228   F   F   F
  0.7497900128131363  0.9864799976191350  0.2195799946750228   F   F   F
  0.1378502863661180  0.1273396764534433  0.2570349008072360   T   T   T
  0.1378502863836826  0.6273396466385157  0.2570349008072360   T   T   T
  0.8787895375318836  0.3782725242647560  0.2569767631289541   T   T   T
  0.8787895374698603  0.8782724944498287  0.2569767631289541   T   T   T
  0.0345636709893028 -0.0095012368572720  0.2929035014002470   T   T   T
  0.0345636710421814  0.4904987397539704  0.2929035014002470   T   T   T
  0.2257375431172915  0.7606585372679211  0.2933081719968457   T   T   T
  0.2257375430997269  0.2606585670828483  0.2933081719968457   T   T   T
 
  0.00000000E+00  0.00000000E+00  0.00000000E+00
  0.00000000E+00  0.00000000E+00  0.00000000E+00
  0.00000000E+00  0.00000000E+00  0.00000000E+00
  0.00000000E+00  0.00000000E+00  0.00000000E+00
  0.00000000E+00  0.00000000E+00  0.00000000E+00
  0.00000000E+00  0.00000000E+00  0.00000000E+00
  0.00000000E+00  0.00000000E+00  0.00000000E+00
  0.00000000E+00  0.00000000E+00  0.00000000E+00
  0.00000000E+00  0.00000000E+00  0.00000000E+00
  0.00000000E+00  0.00000000E+00  0.00000000E+00
  0.00000000E+00  0.00000000E+00  0.00000000E+00
  0.00000000E+00  0.00000000E+00  0.00000000E+00
  0.00000000E+00  0.00000000E+00  0.00000000E+00
  0.00000000E+00  0.00000000E+00  0.00000000E+00
  0.00000000E+00  0.00000000E+00  0.00000000E+00
  0.00000000E+00  0.00000000E+00  0.00000000E+00
  0.00000000E+00  0.00000000E+00  0.00000000E+00
  0.00000000E+00  0.00000000E+00  0.00000000E+00
  0.00000000E+00  0.00000000E+00  0.00000000E+00
  0.00000000E+00  0.00000000E+00  0.00000000E+00
  0.00000000E+00  0.00000000E+00  0.00000000E+00
  0.00000000E+00  0.00000000E+00  0.00000000E+00
  0.00000000E+00  0.00000000E+00  0.00000000E+00
  0.00000000E+00  0.00000000E+00  0.00000000E+00
  0.00000000E+00  0.00000000E+00  0.00000000E+00
  0.00000000E+00  0.00000000E+00  0.00000000E+00
  0.00000000E+00  0.00000000E+00  0.00000000E+00
  0.00000000E+00  0.00000000E+00  0.00000000E+00
  0.00000000E+00  0.00000000E+00  0.00000000E+00
  0.00000000E+00  0.00000000E+00  0.00000000E+00
  0.00000000E+00  0.00000000E+00  0.00000000E+00
  0.00000000E+00  0.00000000E+00  0.00000000E+00
  0.00000000E+00  0.00000000E+00  0.00000000E+00
  0.00000000E+00  0.00000000E+00  0.00000000E+00
  0.00000000E+00  0.00000000E+00  0.00000000E+00
  0.00000000E+00  0.00000000E+00  0.00000000E+00
  0.00000000E+00  0.00000000E+00  0.00000000E+00
  0.00000000E+00  0.00000000E+00  0.00000000E+00
  0.00000000E+00  0.00000000E+00  0.00000000E+00
  0.00000000E+00  0.00000000E+00  0.00000000E+00
  0.00000000E+00  0.00000000E+00  0.00000000E+00
  0.00000000E+00  0.00000000E+00  0.00000000E+00
  0.00000000E+00  0.00000000E+00  0.00000000E+00
  0.00000000E+00  0.00000000E+00  0.00000000E+00
  0.00000000E+00  0.00000000E+00  0.00000000E+00
  0.00000000E+00  0.00000000E+00  0.00000000E+00
  0.00000000E+00  0.00000000E+00  0.00000000E+00
  0.00000000E+00  0.00000000E+00  0.00000000E+00
  0.00000000E+00  0.00000000E+00  0.00000000E+00
  0.00000000E+00  0.00000000E+00  0.00000000E+00
  0.00000000E+00  0.00000000E+00  0.00000000E+00
  0.00000000E+00  0.00000000E+00  0.00000000E+00
  0.00000000E+00  0.00000000E+00  0.00000000E+00
  0.00000000E+00  0.00000000E+00  0.00000000E+00
  0.00000000E+00  0.00000000E+00  0.00000000E+00
  0.00000000E+00  0.00000000E+00  0.00000000E+00
  0.00000000E+00  0.00000000E+00  0.00000000E+00
  0.00000000E+00  0.00000000E+00  0.00000000E+00
  0.00000000E+00  0.00000000E+00  0.00000000E+00
  0.00000000E+00  0.00000000E+00  0.00000000E+00
  0.00000000E+00  0.00000000E+00  0.00000000E+00
  0.00000000E+00  0.00000000E+00  0.00000000E+00
  0.00000000E+00  0.00000000E+00  0.00000000E+00
  0.00000000E+00  0.00000000E+00  0.00000000E+00
  0.00000000E+00  0.00000000E+00  0.00000000E+00
  0.00000000E+00  0.00000000E+00  0.00000000E+00
  0.00000000E+00  0.00000000E+00  0.00000000E+00
  0.00000000E+00  0.00000000E+00  0.00000000E+00
  0.00000000E+00  0.00000000E+00  0.00000000E+00
  0.00000000E+00  0.00000000E+00  0.00000000E+00
  0.00000000E+00  0.00000000E+00  0.00000000E+00
  0.00000000E+00  0.00000000E+00  0.00000000E+00
  0.00000000E+00  0.00000000E+00  0.00000000E+00
  0.00000000E+00  0.00000000E+00  0.00000000E+00
  0.00000000E+00  0.00000000E+00  0.00000000E+00
  0.00000000E+00  0.00000000E+00  0.00000000E+00
  0.00000000E+00  0.00000000E+00  0.00000000E+00
  0.00000000E+00  0.00000000E+00  0.00000000E+00
  0.00000000E+00  0.00000000E+00  0.00000000E+00
  0.00000000E+00  0.00000000E+00  0.00000000E+00
  0.00000000E+00  0.00000000E+00  0.00000000E+00
  0.00000000E+00  0.00000000E+00  0.00000000E+00
  0.00000000E+00  0.00000000E+00  0.00000000E+00
  0.00000000E+00  0.00000000E+00  0.00000000E+00
  0.00000000E+00  0.00000000E+00  0.00000000E+00
  0.00000000E+00  0.00000000E+00  0.00000000E+00
  0.00000000E+00  0.00000000E+00  0.00000000E+00
  0.00000000E+00  0.00000000E+00  0.00000000E+00
  0.00000000E+00  0.00000000E+00  0.00000000E+00
  0.00000000E+00  0.00000000E+00  0.00000000E+00
  0.00000000E+00  0.00000000E+00  0.00000000E+00
  0.00000000E+00  0.00000000E+00  0.00000000E+00
  0.00000000E+00  0.00000000E+00  0.00000000E+00
  0.00000000E+00  0.00000000E+00  0.00000000E+00
  0.00000000E+00  0.00000000E+00  0.00000000E+00
  0.00000000E+00  0.00000000E+00  0.00000000E+00
